Generated from /home/shaofl/projects/03_CuAg_SAA/explicit/double-side/bader/1k/calc_t1000_i1000/traj_1000.cif by cif2poscar.py
   1.00000000000000
    10.2239000000000004  0.0000000000000000  0.0000000000000000
     0.0000000000000006 10.2239000000000004  0.0000000000000000
     0.0000000000000016  0.0000000000000016 26.4220000000000006
 Cu Ag O H K
    62    2    68    136    2
Direct
   0.9820300000000000  0.0103900000000000  0.9491900000000000
   0.2245000000000000  0.2616200000000000  0.9450100000000000
   0.9759500000000000  0.0297100000000000  0.0803400000000000
   0.2233300000000000  0.2500300000000000  0.0835300000000000
   0.2318000000000000  0.0096700000000000  0.9478100000000000
   0.9803200000000000  0.2765100000000000  0.9454300000000000
   0.2279300000000000  0.0049500000000000  0.0806700000000000
   0.9735900000000000  0.2703600000000000  0.0877100000000000
   0.3511500000000000  0.1266900000000000  0.8838600000000000
   0.0930400000000000  0.3857800000000000  0.8745100000000000
   0.3551800000000000  0.1391500000000000  0.0157000000000000
   0.1104000000000000  0.3783400000000000  0.0147500000000000
   0.1100000000000000  0.1491900000000000  0.8749300000000000
   0.0975500000000000  0.1336500000000000  0.0113900000000000
   0.3651800000000000  0.3926100000000000  0.0140000000000000
   0.4915800000000000  0.0067600000000000  0.9440700000000000
   0.7285100000000000  0.2694200000000000  0.9526700000000000
   0.4753800000000000  0.0095400000000000  0.0865400000000000
   0.7325500000000000  0.2709300000000000  0.0875100000000000
   0.7399800000000000  0.0064600000000000  0.9472200000000000
   0.4899100000000000  0.2644600000000000  0.9481400000000000
   0.7254699999999999  0.0221000000000000  0.0823500000000000
   0.4716000000000000  0.2668300000000000  0.0843700000000000
   0.8506200000000000  0.1445700000000000  0.8816900000000000
   0.6140300000000000  0.3812700000000000  0.8859600000000000
   0.8445000000000000  0.1479300000000000  0.0172500000000000
   0.6063600000000000  0.3853800000000000  0.0151500000000000
   0.6023200000000000  0.1454300000000000  0.8833600000000000
   0.8482300000000000  0.4018600000000000  0.8788700000000000
   0.6012999999999999  0.1332900000000000  0.0177400000000000
   0.8594100000000000  0.3929900000000000  0.0174900000000000
   0.9895800000000000  0.5205700000000000  0.9491300000000000
   0.2359400000000000  0.7588800000000000  0.9519300000000001
   0.9800800000000000  0.5233500000000000  0.0897900000000000
   0.2287900000000000  0.7614600000000000  0.0880400000000000
   0.2289100000000000  0.5147500000000000  0.9477100000000001
   0.9827100000000000  0.7571300000000000  0.9379600000000000
   0.2289300000000000  0.5063700000000000  0.0802900000000000
   0.9874900000000000  0.7666500000000001  0.0822100000000000
   0.3654400000000000  0.6431600000000000  0.8738400000000000
   0.1264400000000000  0.8893900000000000  0.8809500000000000
   0.3516300000000000  0.6246300000000000  0.0147200000000000
   0.1045400000000000  0.8874700000000000  0.0161100000000000
   0.1220500000000000  0.6343200000000000  0.8751800000000000
   0.3581700000000000  0.8810100000000000  0.8826300000000000
   0.1014300000000000  0.6291900000000000  0.0167800000000000
   0.3589500000000000  0.8899100000000000  0.0142900000000000
   0.4747200000000000  0.5242900000000000  0.9469000000000000
   0.7329200000000000  0.7615400000000000  0.9469800000000000
   0.7205100000000000  0.7640300000000000  0.0874400000000000
   0.7310000000000000  0.5091900000000000  0.9478400000000000
   0.4816900000000000  0.7719000000000000  0.9476100000000000
   0.7272400000000000  0.5147699999999999  0.0816500000000000
   0.4746200000000000  0.7688900000000000  0.0821100000000000
   0.8759100000000000  0.6355700000000000  0.8718100000000000
   0.6123100000000000  0.8645800000000000  0.8773500000000000
   0.8531100000000000  0.6429100000000000  0.0175900000000000
   0.6026000000000000  0.8936800000000000  0.0185500000000000
   0.6016000000000000  0.6259600000000000  0.8848200000000001
   0.8597100000000000  0.8848300000000000  0.8771000000000000
   0.5960900000000000  0.6483100000000001  0.0176200000000000
   0.8442000000000000  0.8896600000000000  0.0157400000000000
   0.3563000000000000  0.3841300000000000  0.8693000000000000
   0.4780000000000000  0.5266300000000000  0.1086300000000000
   0.7706600000000000  0.9564400000000000  0.2049000000000000
   0.8542200000000000  0.6447200000000000  0.2015600000000000
   0.3547700000000000  0.9433800000000000  0.5916500000000000
   0.6315200000000000  0.1877200000000000  0.1918900000000000
   0.2653400000000000  0.0728000000000000  0.1989200000000000
   0.6721400000000000  0.3263400000000000  0.4834800000000000
   0.4290800000000000  0.5794500000000000  0.5699900000000000
   0.7631500000000000  0.9451900000000000  0.7853599999999999
   0.9747900000000000  0.4323700000000000  0.6416100000000000
   0.3958700000000000  0.7567800000000000  0.4300200000000000
   0.0702300000000000  0.3772400000000000  0.5514200000000000
   0.9806900000000000  0.0038900000000000  0.7367400000000000
   0.7389100000000000  0.5482300000000000  0.7132600000000000
   0.7598300000000000  0.3553600000000000  0.3144400000000000
   0.7301400000000000  0.7499500000000000  0.6372900000000000
   0.9956800000000000  0.2973700000000000  0.3903900000000000
   0.4951600000000000  0.8321000000000000  0.6684800000000000
   0.6945800000000000  0.6174100000000000  0.3378900000000000
   0.8287300000000000  0.3800600000000000  0.2145800000000000
   0.6190600000000001  0.0862600000000000  0.4541800000000000
   0.4234300000000000  0.8164800000000000  0.3328700000000000
   0.4080600000000000  0.0397100000000000  0.7727000000000001
   0.1124900000000000  0.4544200000000000  0.7885500000000000
   0.3487700000000000  0.2376200000000000  0.4612500000000000
   0.0979400000000000  0.5366300000000001  0.3576000000000000
   0.5518500000000000  0.3598100000000000  0.5708700000000000
   0.7390500000000000  0.2531800000000000  0.7773500000000000
   0.3442300000000000  0.4578200000000000  0.7377300000000000
   0.7606600000000000  0.8990200000000000  0.3960200000000000
   0.4118200000000000  0.1804600000000000  0.6318500000000000
   0.1904300000000000  0.6884000000000000  0.2051700000000000
   0.0093500000000000  0.9130100000000000  0.4272600000000000
   0.0288500000000000  0.9158500000000001  0.2882200000000000
   0.1493500000000000  0.6911000000000000  0.4414900000000000
   0.6481000000000000  0.9469000000000000  0.3039800000000000
   0.2660800000000000  0.3088800000000000  0.2959200000000000
   0.5693800000000000  0.7816700000000000  0.7714200000000000
   0.9725300000000000  0.0182800000000000  0.5215600000000000
   0.7586200000000000  0.1355000000000000  0.5679100000000000
   0.2519500000000000  0.0132000000000000  0.3135700000000000
   0.2486100000000000  0.2137300000000000  0.7127400000000000
   0.9247800000000000  0.6780300000000000  0.2970600000000000
   0.2770300000000000  0.6142800000000000  0.2965400000000000
   0.1598300000000000  0.1236300000000000  0.3978100000000000
   0.7364800000000000  0.3583600000000000  0.6492599999999999
   0.9082900000000000  0.4469400000000000  0.4698700000000000
   0.8294000000000000  0.9803300000000000  0.6460700000000000
   0.9689200000000000  0.6636800000000000  0.7624700000000000
   0.5004600000000000  0.4548200000000000  0.2073000000000000
   0.2069500000000000  0.5968200000000000  0.5324500000000000
   0.5351100000000000  0.2753200000000000  0.3615800000000000
   0.6074800000000000  0.6875400000000000  0.2455200000000000
   0.0533200000000000  0.7198700000000000  0.6657500000000000
   0.1900800000000000  0.1576700000000000  0.5353300000000000
   0.9131700000000000  0.1439200000000000  0.3042100000000000
   0.4239500000000000  0.8523100000000000  0.1978000000000000
   0.5679800000000000  0.4576600000000000  0.7779100000000000
   0.7325100000000000  0.6574400000000000  0.4350800000000000
   0.4882500000000000  0.8918300000000000  0.5120500000000000
   0.1281600000000000  0.8283900000000000  0.5783700000000001
   0.2046500000000000  0.8681800000000000  0.7584100000000000
   0.6609800000000000  0.6748700000000000  0.5386800000000000
   0.4986100000000000  0.1329200000000000  0.2687700000000000
   0.4833300000000000  0.4723600000000000  0.4277900000000000
   0.0365100000000000  0.9043500000000000  0.1914000000000000
   0.2135000000000000  0.4163300000000000  0.1935300000000000
   0.3095100000000000  0.6451600000000000  0.6689600000000000
   0.6289100000000000  0.0928700000000000  0.6964200000000000
   0.7361400000000000  0.0431700000000000  0.1993000000000000
   0.7305600000000000  0.9087900000000000  0.1769200000000000
   0.9073500000000000  0.6622700000000000  0.2344600000000000
   0.9029700000000001  0.6553300000000000  0.1718300000000000
   0.2693800000000000  0.8876400000000000  0.5861000000000000
   0.4159900000000000  0.9160199999999999  0.5618000000000000
   0.5588500000000000  0.1793300000000000  0.2139900000000000
   0.6078000000000000  0.1748600000000000  0.1566300000000000
   0.3232800000000000  0.1422600000000000  0.1810500000000000
   0.3241800000000000  0.9933100000000000  0.1959600000000000
   0.6178300000000000  0.3763900000000000  0.4589800000000000
   0.6232000000000000  0.3418800000000000  0.5170100000000000
   0.3393500000000000  0.5796800000000000  0.5518900000000000
   0.3979500000000000  0.6085500000000000  0.6034400000000000
   0.6835400000000000  0.8895100000000000  0.7799900000000000
   0.7346600000000000  0.0342500000000000  0.7927400000000000
   0.9896700000000000  0.5276900000000000  0.6464000000000000
   0.8710000000000000  0.4233400000000000  0.6354900000000000
   0.4243500000000000  0.6595299999999999  0.4308400000000000
   0.4259800000000000  0.7869900000000000  0.3939700000000000
   0.0063300000000000  0.4064500000000000  0.5270800000000000
   0.0287800000000000  0.3865800000000000  0.5844700000000000
   0.9472600000000000  0.0093600000000000  0.7019100000000000
   0.9095000000000000  0.9528799999999999  0.7554500000000000
   0.6648400000000000  0.5414400000000000  0.7356400000000000
   0.7344600000000000  0.6227300000000000  0.6870000000000001
   0.7264100000000000  0.4437000000000000  0.3166600000000000
   0.7723500000000000  0.3542200000000000  0.2770600000000000
   0.7918800000000000  0.8254300000000000  0.6400800000000000
   0.7184600000000000  0.7127400000000000  0.6034800000000000
   0.9395200000000000  0.2638900000000000  0.3662900000000000
   0.0645900000000000  0.2242600000000000  0.3965800000000000
   0.4452500000000000  0.8973700000000000  0.6493000000000000
   0.5811300000000000  0.8167800000000000  0.6479700000000000
   0.6654400000000000  0.6216600000000000  0.3712200000000000
   0.6353000000000000  0.6571000000000000  0.3132500000000000
   0.7711400000000000  0.3398600000000000  0.1885700000000000
   0.8324800000000000  0.4776800000000000  0.2046100000000000
   0.6777200000000000  0.0278000000000000  0.4336600000000000
   0.6593900000000000  0.1672500000000000  0.4662400000000000
   0.5038400000000000  0.8503600000000000  0.3173900000000000
   0.3673300000000000  0.8973800000000000  0.3308500000000000
   0.4329300000000000  0.0732700000000000  0.8061199999999999
   0.3458000000000000  0.9591900000000000  0.7761200000000000
   0.1958100000000000  0.4444800000000000  0.7667700000000000
   0.0678900000000000  0.5400900000000000  0.7776400000000000
   0.4237400000000000  0.1788700000000000  0.4563200000000000
   0.3056000000000000  0.2026200000000000  0.4925000000000000
   0.0612000000000000  0.4502500000000000  0.3641400000000000
   0.1792200000000000  0.5389699999999999  0.3374800000000000
   0.5080300000000000  0.4486500000000000  0.5697200000000000
   0.4891600000000000  0.2926000000000000  0.5827800000000000
   0.7824700000000000  0.2495400000000000  0.8111900000000000
   0.6761300000000000  0.3254500000000000  0.7821600000000000
   0.3341100000000000  0.5258600000000000  0.7087599999999999
   0.3068300000000000  0.3781500000000000  0.7241200000000000
   0.8546100000000000  0.9141600000000000  0.4017100000000000
   0.7564900000000000  0.8094200000000000  0.4125300000000000
   0.3925700000000000  0.0888200000000000  0.6191400000000000
   0.4995100000000000  0.1602500000000000  0.6505300000000001
   0.1237100000000000  0.7460100000000000  0.1909800000000000
   0.1819200000000000  0.5971800000000000  0.1908000000000000
   0.0734300000000000  0.9857300000000000  0.4200200000000000
   0.0618700000000000  0.8322400000000000  0.4316000000000000
   0.0309400000000000  0.9218000000000000  0.2493500000000000
   0.9908500000000000  0.8344000000000000  0.2964000000000000
   0.2343800000000000  0.7291400000000000  0.4326300000000000
   0.1377300000000000  0.6312200000000000  0.4107200000000000
   0.6872800000000000  0.9190800000000000  0.2729200000000000
   0.7094600000000000  0.9227800000000000  0.3355100000000000
   0.2309100000000000  0.3223700000000000  0.3320800000000000
   0.3187200000000000  0.3878200000000000  0.2920400000000000
   0.5386800000000000  0.8253500000000000  0.7404600000000000
   0.5074400000000000  0.7770400000000000  0.8004200000000000
   0.0576400000000000  0.0625200000000000  0.5179200000000000
   0.9554900000000000  0.9821299999999999  0.4870400000000000
   0.7742800000000000  0.2134600000000000  0.5877000000000000
   0.8393600000000000  0.1214500000000000  0.5465900000000000
   0.1689700000000000  0.9791000000000000  0.2996900000000000
   0.2982800000000000  0.0636100000000000  0.2866600000000000
   0.3078800000000000  0.1620600000000000  0.7374800000000000
   0.3062600000000000  0.2144100000000000  0.6810200000000000
   0.8379400000000000  0.6665500000000000  0.3180400000000000
   0.9950700000000000  0.6322700000000000  0.3185600000000000
   0.2344900000000000  0.6310600000000000  0.2638100000000000
   0.3433600000000000  0.6817500000000000  0.3026400000000000
   0.1949900000000000  0.0913800000000000  0.3629700000000000
   0.2386000000000000  0.1553200000000000  0.4177500000000000
   0.6680100000000000  0.3524700000000000  0.6230599999999999
   0.7129000000000000  0.4315300000000000  0.6701200000000000
   0.9408500000000000  0.4107200000000000  0.4390000000000000
   0.8195200000000000  0.4056100000000000  0.4780000000000000
   0.7989700000000000  0.0250200000000000  0.6151500000000000
   0.7619700000000000  0.9977000000000000  0.6710100000000000
   0.8741800000000000  0.6353600000000000  0.7528300000000000
   0.9640100000000000  0.7283500000000001  0.7885000000000000
   0.5547600000000000  0.3766700000000000  0.1987600000000000
   0.5599300000000000  0.5280800000000000  0.2221200000000000
   0.1895300000000000  0.6215200000000000  0.4959400000000000
   0.1441700000000000  0.5140200000000000  0.5399600000000000
   0.6218000000000000  0.2907800000000000  0.3476900000000000
   0.5459800000000000  0.1962000000000000  0.3812900000000000
   0.6840600000000000  0.6963600000000000  0.2243300000000000
   0.5389100000000000  0.7364000000000001  0.2270500000000000
   0.0548300000000000  0.7997400000000000  0.6455900000000000
   0.0293600000000000  0.7307399999999999  0.7000600000000000
   0.2470400000000000  0.1054500000000000  0.5602300000000000
   0.1548400000000000  0.2457500000000000  0.5450100000000000
   0.8219400000000000  0.1388700000000000  0.3067200000000000
   0.9479000000000000  0.0536800000000000  0.3089300000000000
   0.4591700000000000  0.8788300000000000  0.1626600000000000
   0.3417800000000000  0.8060200000000000  0.1932000000000000
   0.5467000000000000  0.5145500000000000  0.8079600000000000
   0.4751300000000000  0.4373500000000000  0.7639000000000000
   0.8059100000000000  0.5929700000000000  0.4389000000000000
   0.7100200000000000  0.6560300000000000  0.4729900000000000
   0.4603500000000000  0.8470500000000000  0.4799800000000000
   0.5388700000000000  0.9728599999999999  0.5016800000000000
   0.0696200000000000  0.8802300000000000  0.5551900000000000
   0.1387600000000000  0.7355300000000000  0.5627600000000000
   0.1298200000000000  0.9316000000000000  0.7498600000000000
   0.1917000000000000  0.8273200000000001  0.7927300000000000
   0.6383700000000000  0.7716600000000000  0.5365400000000000
   0.5757200000000000  0.6310600000000000  0.5522800000000000
   0.5548000000000000  0.0725800000000000  0.2888900000000000
   0.4953600000000000  0.2123100000000000  0.2889000000000000
   0.4285600000000000  0.4297600000000000  0.4535000000000000
   0.4844700000000000  0.4071100000000000  0.3978300000000000
   0.9426600000000001  0.9210600000000000  0.1839000000000000
   0.0861100000000000  0.9086400000000000  0.1595900000000000
   0.3105900000000000  0.4259600000000000  0.2004000000000000
   0.2042000000000000  0.3997000000000000  0.1559700000000000
   0.3680300000000000  0.7221800000000000  0.6722200000000000
   0.2174500000000000  0.6817100000000000  0.6700400000000000
   0.6721400000000000  0.1756400000000000  0.7073700000000001
   0.5690400000000000  0.0652600000000000  0.7242900000000000
   0.0464900000000000  0.2309300000000000  0.2186500000000000
   0.9954900000000000  0.2747900000000000  0.7305199999999999
