 # Version information for this restart file 
 # current date 2026-02-25 10:47:52.883
 # current working dir /home/shaofl/projects/03_CuAg_SAA/explicit/1K/co2_to_cooh/from_ad_h2o/sg2
 # Program compiled at                              Wed Jun 16 17:08:34 CST 2021
 # Program compiled on                                                       mgr
 # Program compiled for                                       Linux-x86-64-intel
 # Source code revision number                                       git:e635599
 &GLOBAL
   PRINT_LEVEL  LOW
   PROJECT_NAME slowgrowth
   RUN_TYPE  MD
 &END GLOBAL
 &MOTION
   &MD
     ENSEMBLE  NVT
     STEPS  8000
     TIMESTEP     9.9999999999999989E-01
     STEP_START_VAL  3000
     TIME_START_VAL     2.9999999999998336E+03
     ECONS_START_VAL    -4.3014588840744354E+03
     TEMPERATURE     3.0014999999999998E+02
     &THERMOSTAT
       TYPE  NOSE
       REGION  GLOBAL
       &NOSE
         LENGTH  3
         TIMECON     2.2237606346543473E+01
         &COORD
               2.1951595247666086E-01    5.3356780158593162E+00    2.4234905322785396E+00
         &END COORD
         &VELOCITY
               7.1116092695636663E-05    6.5324430197564866E-06    1.8686658067626884E-03
         &END VELOCITY
         &MASS
               6.4750332819943212E+05    8.0335400521021347E+02    8.0335400521021347E+02
         &END MASS
         &FORCE
              -2.2297562073512138E-08    2.8931549000730168E-06   -1.1831463311924524E-06
         &END FORCE
       &END NOSE
     &END THERMOSTAT
     &AVERAGES  T
       &RESTART_AVERAGES
         ITIMES_START  1
         AVECPU     1.8188945264859765E+01
         AVEHUGONIOT     0.0000000000000000E+00
         AVETEMP_BARO     0.0000000000000000E+00
         AVEPOT    -4.3018855713841613E+03
         AVEKIN     3.8367294394250884E-01
         AVETEMP     3.0063074139784698E+02
         AVEKIN_QM     0.0000000000000000E+00
         AVETEMP_QM     0.0000000000000000E+00
         AVEVOL     1.8637835790266097E+04
         AVECELL_A     1.9320371010009591E+01
         AVECELL_B     1.9320371010009591E+01
         AVECELL_C     4.9930343883104499E+01
         AVEALPHA     9.0000000000000000E+01
         AVEBETA     9.0000000000000000E+01
         AVEGAMMA     9.0000000000000000E+01
         AVE_ECONS     5.2383264030842355E+01
         AVE_PRESS     0.0000000000000000E+00
         AVE_PXX     0.0000000000000000E+00
       &END RESTART_AVERAGES
     &END AVERAGES
     &PRINT
       &ENERGY  SILENT
       &END ENERGY
     &END PRINT
   &END MD
   &CONSTRAINT
     &COLLECTIVE
       COLVAR  1
       INTERMOLECULAR  T
       TARGET    -3.7794522657645185E-02
       TARGET_GROWTH    -9.1420578484471594E-06
     &END COLLECTIVE
     &LAGRANGE_MULTIPLIERS  SILENT
       COMMON_ITERATION_LEVELS  1
       FILENAME constraint_force.dat
     &END LAGRANGE_MULTIPLIERS
   &END CONSTRAINT
   &PRINT
     &TRAJECTORY  SILENT
       &EACH
         MD  5
       &END EACH
     &END TRAJECTORY
     &VELOCITIES  SILENT
       &EACH
         MD  5
       &END EACH
     &END VELOCITIES
     &RESTART  SILENT
       &EACH
         MD  10
       &END EACH
     &END RESTART
   &END PRINT
 &END MOTION
 &FORCE_EVAL
   METHOD  QS
   &DFT
     BASIS_SET_FILE_NAME BASIS_MOLOPT
     POTENTIAL_FILE_NAME GTH_POTENTIALS
     WFN_RESTART_FILE_NAME ./1-RESTART.wfn
     UKS  T
     CHARGE  0
     &SCF
       MAX_SCF  60
       EPS_SCF     1.0000000000000001E-05
       SCF_GUESS  ATOMIC
       &OT  T
         MINIMIZER  BROYDEN
         BROYDEN_BETA     9.0000000000000002E-01
         BROYDEN_SIGMA     1.0000000000000001E-01
         LINESEARCH  2PNT
         PRECONDITIONER  FULL_ALL
       &END OT
       &OUTER_SCF  T
         EPS_SCF     1.0000000000000001E-05
         MAX_SCF  50
       &END OUTER_SCF
       &PRINT
         &RESTART_HISTORY  SILENT
           ADD_LAST  NUMERIC
           FILENAME = MD_RESTART_HISTORY.wfn
           BACKUP_COPIES  5
           &EACH
           &END EACH
         &END RESTART_HISTORY
       &END PRINT
     &END SCF
     &QS
       EPS_DEFAULT     9.9999999999999998E-13
       EPS_PGF_ORB     9.9999999999999995E-07
       EXTRAPOLATION  ASPC
       EXTRAPOLATION_ORDER  2
     &END QS
     &MGRID
       NGRIDS  5
       CUTOFF     4.5000000000000000E+02
       REL_CUTOFF     6.0000000000000000E+01
     &END MGRID
     &XC
       DENSITY_CUTOFF     1.0000000000000000E-10
       GRADIENT_CUTOFF     1.0000000000000000E-10
       TAU_CUTOFF     1.0000000000000000E-10
       &XC_GRID
         XC_SMOOTH_RHO  NN10
         XC_DERIV  NN10_SMOOTH
       &END XC_GRID
       &XC_FUNCTIONAL  NO_SHORTCUT
         &PBE  T
         &END PBE
       &END XC_FUNCTIONAL
       &VDW_POTENTIAL
         POTENTIAL_TYPE  PAIR_POTENTIAL
         &PAIR_POTENTIAL
           R_CUTOFF     1.0000000000000002E+01
           TYPE  DFTD3
           PARAMETER_FILE_NAME dftd3.dat
           REFERENCE_FUNCTIONAL PBE
         &END PAIR_POTENTIAL
       &END VDW_POTENTIAL
     &END XC
     &PRINT
       &MULLIKEN  SILENT
         FILENAME =CHARGE.mulliken
         &EACH
           MD  5
         &END EACH
       &END MULLIKEN
     &END PRINT
   &END DFT
   &SUBSYS
     &CELL
       A     1.0223900000000002E+01    0.0000000000000000E+00    0.0000000000000000E+00
       B     0.0000000000000000E+00    1.0223900000000002E+01    0.0000000000000000E+00
       C     0.0000000000000000E+00    0.0000000000000000E+00    2.6422000000000001E+01
       PERIODIC  XYZ
       MULTIPLE_UNIT_CELL  1 1 1
     &END CELL
     &COORD
Cu    3.8184715296643856E-01    9.8426016395605433E+00    4.3490679991827907E-01
Cu    2.9947082408509464E+00    2.1086334874599690E+00    3.4125890680010723E-01
Cu    5.7530475248906898E-01    9.7440451016739438E+00    4.1437350015052115E+00
Cu    3.0226391591170505E+00    2.1199506213923729E+00    4.1047153377538486E+00
Cu    3.0642094603218584E+00    9.8474185894964137E+00    4.7885026988244211E-01
Cu    4.5895014602913176E-01    2.1559508446304920E+00    2.8715991826813225E-01
Cu    3.0545903967600725E+00    9.6402132647729246E+00    3.9403703187927039E+00
Cu    3.9953809547014590E-01    2.0873317951091703E+00    3.8460274330343909E+00
Cu    4.3419700174569433E+00    7.1794077604847850E-01    2.5146011874712347E+01
Cu    1.6408378717382606E+00    3.5935747197480512E+00    2.4836830117030075E+01
Cu    4.3049174139970070E+00    7.4577480251248462E-01    2.3373827348327425E+00
Cu    1.7156018271953353E+00    3.3725142447600667E+00    2.1731553666722525E+00
Cu    1.8401288194505754E+00    8.6359676644087335E-01    2.4922770301821956E+01
Ag    4.3007153275745909E+00    3.5989053363025691E+00    2.4756097159504080E+01
Cu    1.7431400981110923E+00    8.4996242803875077E-01    2.1739598691314059E+00
Cu    4.2017608332497591E+00    3.2761698400152262E+00    2.2694341548805941E+00
Cu    5.6003542557242261E+00    9.6941119837268790E+00    4.3485006494364259E-01
Cu    8.1308136446495940E+00    2.1921816210877600E+00    5.0846721889082391E-01
Cu    5.5414801255643313E+00    9.8377813132695060E+00    4.0283543807681887E+00
Cu    8.1263190295720698E+00    2.1185975616024266E+00    3.8615501665827465E+00
Cu    8.1240428644450091E+00    9.7031610522675518E+00    3.5803570383774785E-01
Cu    5.5636394288121629E+00    2.0998763576780743E+00    4.9620384279522584E-01
Cu    8.0016441035543391E+00    9.6605781159652704E+00    3.9895955921851867E+00
Cu    5.6153619596333568E+00    2.1239852776716255E+00    3.9864967857203548E+00
Cu    9.4330249738859937E+00    7.1296982736510550E-01    2.4982090903329937E+01
Cu    6.9004292001884728E+00    3.3742030444890405E+00    2.5091852458650756E+01
Cu    9.4830663448022783E+00    8.2121470831914367E-01    2.2116297627298662E+00
Cu    6.7175562831186060E+00    3.4561861281179698E+00    2.2773653773856317E+00
Cu    6.7352716086267312E+00    9.4388175335859270E-01    2.5193618799965627E+01
Cu    9.3314326171769171E+00    3.2438050471562279E+00    2.5165125418906712E+01
Cu    6.9085572746562853E+00    7.2541853385049837E-01    2.2336980796653436E+00
Cu    9.4711199447057144E+00    3.4629938342438158E+00    2.2025602793743455E+00
Cu    4.3294167378847120E-01    4.6666282385722200E+00    3.1179427555192635E-01
Cu    3.0410854877716864E+00    7.1836653267422630E+00    4.1271738872800251E-01
Cu    5.5698966429903807E-01    4.7816153617127739E+00    3.9781709553547957E+00
Cu    3.1139849094531513E+00    7.1786867190384900E+00    4.0112007925082773E+00
Cu    2.9172306587212238E+00    4.6585900069447366E+00    4.1071516844883443E-01
Cu    4.5341820493914475E-01    7.2654331132378580E+00    3.9100236660951060E-01
Cu    3.0298843441866592E+00    4.7437983536861230E+00    4.0386720995074565E+00
Cu    5.5076389433181872E-01    7.3782569524786137E+00    4.0978748261630562E+00
Cu    4.3291188151707152E+00    6.1086719498680937E+00    2.5020614411622976E+01
Cu    1.7092237125440553E+00    8.5553630584406868E+00    2.5139604900828004E+01
Cu    4.4586302948174037E+00    5.9668883234092531E+00    2.3257540252087523E+00
Cu    1.7929975238838509E+00    8.4787790218832590E+00    2.2595532352446908E+00
Cu    1.8408847436563986E+00    6.0347118293634630E+00    2.5074395983992400E+01
Cu    4.2477882895474144E+00    8.4092592139600928E+00    2.5062108896740227E+01
Cu    1.8380932114537052E+00    5.9851731388051297E+00    2.2514551941030634E+00
Cu    4.3914794118859790E+00    8.4387831784882916E+00    2.1407030950079147E+00
Cu    5.5378990743903209E+00    4.6401047790818337E+00    4.5051000966243271E-01
Cu    8.1607170068985777E+00    7.1154677715749477E+00    5.1287095160366991E-01
Ag    5.5645842632859397E+00    4.7198598225255246E+00    4.4992027963660997E+00
Cu    8.2483952672956278E+00    7.1161072394635916E+00    4.0723186290990014E+00
Cu    8.0878236031914046E+00    4.6893115503121345E+00    4.0369879048378160E-01
Cu    5.5815604730806498E+00    7.1217747147804333E+00    4.1678155415610035E-01
Cu    8.2251808815263008E+00    4.6290549231491269E+00    4.0658055205960002E+00
Cu    5.8176661272068211E+00    7.3261298042509706E+00    4.0822794298479499E+00
Cu    9.4664533885613675E+00    5.8633668711499745E+00    2.5004501770014013E+01
Cu    6.8510414090096603E+00    8.6513324973118273E+00    2.4928581965633917E+01
Cu    9.6383011611658365E+00    5.8966945346160111E+00    2.2373259372472178E+00
Cu    6.8553336842889747E+00    8.3624619353276195E+00    2.2349874267648335E+00
Cu    6.8818295152215816E+00    5.9101563662897796E+00    2.5156162447909090E+01
Cu    9.3836496123848949E+00    8.4743861588568006E+00    2.5093992552913495E+01
Cu    6.9687032208861490E+00    5.9300336882257518E+00    2.3253344840821404E+00
Cu    9.4480380490485469E+00    8.4663857235963409E+00    2.2605432778748478E+00
O    1.1389062460196711E+00    1.2207161876236254E+00    7.0924377695421033E+00
H    1.0765277500703940E+01    1.9753239387203758E+00    6.9153397909829311E+00
H    2.0500950391480730E+00    1.4664443662126587E+00    6.6946219913263718E+00
O    7.1475288504099144E+00    1.2067944962227831E+01    7.0380206792040516E+00
H    7.0425778740518501E+00    1.3873471301637414E+00    7.9462730024519965E+00
H    6.2991965258253861E+00    2.3992088661095634E+00    6.9179769679192100E+00
O    2.6039263561483716E+00    1.1968052827510600E+00    1.7983393994917918E+01
H    2.1280648060272855E+00    1.6148912899618175E+00    1.8787264459044476E+01
H    2.6781952476617685E+00    1.0470571074164218E+01    1.8187558576373185E+01
O    2.4916883501788036E+00    5.5402459130992892E+00    8.2919185710462120E+00
H    3.1299217936059214E+00    4.8722398008127543E+00    7.8869906420642444E+00
H    1.9153426635468560E+00    5.8143196191823252E+00    7.5021060105939688E+00
O    5.2071797738526793E-01    6.6991261653592309E+00    6.8505159509964795E+00
H    2.9569610721043571E-01    7.6623425079889218E+00    6.9421971259032382E+00
H    6.8593845262270003E-01    6.5555236767737703E+00    5.9076248359343371E+00
O    1.7453690255402643E+00    4.8577265953411022E+00    1.3083363519074075E+01
H    1.9721896861816997E+00    4.1060515723696964E+00    1.2400997362950189E+01
H    1.6548201891534249E+00    4.5137057923364940E+00    1.4003961152454069E+01
O    5.6315787132823369E-01    7.1580256413318244E+00    1.7492625439025137E+01
H   -5.5557471977797049E-02    6.7481173661753244E+00    1.6787939175914310E+01
H    1.3609765891978163E+00    7.5873117413557072E+00    1.7054108556406661E+01
O    7.8305346717563973E+00    1.3432117493571538E+00    2.2259839453276971E+01
H    7.4994104071389573E+00    1.0768103301283615E+01    2.1755926196290037E+01
H    7.6262655093667737E+00    1.3581055703477209E+00    2.3201156849479752E+01
O    6.7923373703045371E+00    5.9758552175805297E+00    1.9129087732079082E+01
H    7.1940693302071361E+00    6.8059029956628541E+00    1.9363592749229330E+01
H    5.7933704994877431E+00    6.0145031858534388E+00    1.9246691841392082E+01
O    1.2850506697134618E+00    8.4691584000615237E+00    1.2953095193521731E+01
H    5.9583415073152779E-01    7.6558896648801227E+00    1.2904237414351993E+01
H    8.2948865725931120E-01    9.3076922961691775E+00    1.3027965814244418E+01
O    7.9121954617461805E+00    4.3177341290529530E+00    1.7282386059911627E+01
H    7.3051710992923233E+00    4.1688885134285192E+00    1.6559640596597831E+01
H    7.4350024868279894E+00    5.0211482641438376E+00    1.7849027638095109E+01
O    1.0345027347346468E+01    1.2256637042921101E+01    2.2146067400068748E+01
H    4.5004120563266964E-01    1.2086742582659069E+01    2.3078262762416095E+01
H    9.3578305779406517E+00    1.7327705205874695E+00    2.2178289099865083E+01
O    4.1974481874450040E+00    5.1860327119838399E+00    1.9133787390361789E+01
H    3.3202131879692125E+00    5.5857266241741010E+00    1.9381540129114061E+01
H    4.1016737052696071E+00    5.0331272901255586E+00    1.8128581454893787E+01
O    4.2081313154147439E+00    6.1190280580435221E+00    1.2446355720227920E+01
H    3.3742036010176713E+00    5.8212681344163215E+00    1.2912481388913205E+01
H    4.6372304431818421E+00    6.8830198086159227E+00    1.2954036478777651E+01
O    2.6297694143476837E+00    7.2859748534496598E+00    1.5325181024106426E+01
H    2.2563365248804694E+00    7.3393028366514459E+00    1.4398918924742333E+01
H    3.2534887768008640E+00    8.0544726516597240E+00    1.5535960162731815E+01
O    6.3358756008742239E+00    4.6917648907314131E+00    1.1781306951161765E+01
H    5.7541314019335346E+00    4.9733153306527189E+00    1.2461848488720904E+01
H    6.8157805226075165E+00    3.8962320214616351E+00    1.2123900917223191E+01
O    6.3075413487113323E+00    9.6663913494296310E+00    1.8280413793782071E+01
H    5.9861690754986805E+00    1.0583893135573360E+01    1.8155530158991215E+01
H    7.1102810818815136E+00    9.4362188407468892E+00    1.7713203004965873E+01
O    2.2951138153454993E+00    8.9601577996353825E+00    1.0524206696286610E+01
H    2.9504846196795200E+00    8.1522835189770539E+00    1.0203521254244311E+01
H    1.8987732262240102E+00    8.7097046930723145E+00    1.1423913164853666E+01
C    5.3785513629198807E+00    4.6003268439199339E+00    6.8582018089362924E+00
O    3.4712207376777546E+00    1.2107279790719141E+00    1.4882972891474143E+01
H    4.3390383189759199E+00    1.3002456795911534E+00    1.4457661278196960E+01
H    2.8471470699603301E+00    7.7583313071943405E-01    1.4253720287364882E+01
O    8.9228478875712725E+00    9.9324072049061538E+00    1.1068321212235917E+01
H    8.4355634556588424E+00    9.6500992415814029E+00    1.1927797509166940E+01
H    9.4942205308481178E+00    4.7389007577607922E-01    1.1258087037762163E+01
O    3.8404212226904102E+00    2.0827384876680815E+00    2.1668199851688502E+01
H    3.7565189667743604E+00    2.6830697654563487E+00    2.2450836000234698E+01
H    2.9809046187366288E+00    2.0705872931177378E+00    2.1169681287878536E+01
O    1.0423223854642101E+01    8.1352555817526326E+00    2.1932968290020085E+01
H    1.0003302441191726E+01    8.7150030211209391E+00    2.2638474393946769E+01
H    9.8070857995933149E+00    8.1255329646521179E+00    2.1126305147455703E+01
O   -6.5353465929660326E-01    2.6400557051949729E+00    1.5006372757425863E+01
H    1.7514587385322350E-01    3.1046566905466282E+00    1.5216775469880343E+01
H   -5.0887451694125285E-01    1.9663961403013368E+00    1.5694862523435479E+01
O    7.8342419053215933E+00    6.6298452084071888E+00    1.1289063052216948E+01
H    7.1987734029245827E+00    5.8255920629648443E+00    1.1487749940823338E+01
H    7.3269501799543217E+00    7.2448970836562454E+00    1.0707840644999791E+01
O    1.9097439143551669E+00    3.4214453690240987E+00    1.5387705736396176E+01
H    2.5192063888643794E+00    4.0339105848580559E+00    1.5955770178258579E+01
H    2.6103143413091998E+00    2.7604902185586280E+00    1.5113023244093434E+01
O    3.8222949305895644E+00    5.7801971563491588E+00    2.1977822212361239E+01
H    3.4820517305775560E+00    5.7720912616381304E+00    2.2892158049760841E+01
H    4.7213066737128511E+00    6.1644904669859208E+00    2.2046379920084465E+01
O    1.7640913149495767E+00    5.6318405990087825E+00    1.9430004156652924E+01
H    1.3092925115120442E+00    5.8771316491417815E+00    2.0253040491203457E+01
H    1.2577546939588087E+00    6.2096284744844032E+00    1.8706939793272795E+01
O    4.2741068227580055E+00    1.0136015465552823E+01    1.1896834140537651E+01
H    4.2401300456070459E+00    8.7382041907906050E-01    1.1796386860751801E+01
H    3.4829333450307907E+00    9.9213760546632361E+00    1.1305163149927051E+01
O    5.2200183928161117E+00    1.8777654936423160E+00    1.7912219650128392E+01
H    4.2010109045271600E+00    1.7848787863891504E+00    1.8054483486188204E+01
H    5.5566647706280632E+00    2.3863703308017028E+00    1.8710612883812118E+01
O    3.2680821449850126E+00    9.3272395869805518E+00    7.2328705504939714E+00
H    2.5105649022600978E+00    8.8640345685072823E+00    6.7715733878359838E+00
H    4.0612873033924313E+00    8.8972896156695125E+00    6.9473006477262658E+00
O    6.1814032729136956E+00    1.2744158140962847E+00    1.3556513716816621E+01
H    6.8343789022581500E+00    1.8278367102919861E+00    1.3098604683182897E+01
H    6.7442091384282223E+00    4.5009626336519193E-01    1.3730920153530720E+01
O    6.8909526596405088E+00    8.4850892190649163E-01    9.3948582916552379E+00
H    7.5483751477425356E+00    1.0898133286629696E+01    1.0145322225634922E+01
H    6.3024040563803867E+00    1.5538288243652447E+00    9.6711931298439175E+00
O    7.8766524528865371E+00    9.2800394564842215E+00    1.3547258164434014E+01
H    7.1554321634061813E+00    8.5376161426533930E+00    1.3537271453558967E+01
H    8.2130562221303833E+00    9.3081382773290073E+00    1.4478196881174179E+01
O    5.7556930909197481E+00    7.7496558058607157E+00    6.2045825627773974E+00
H    6.4292932180778477E+00    8.3637677028894615E+00    6.4741753511308229E+00
H    5.8647025081614261E+00    7.0157214470820133E+00    6.9202949466493608E+00
O    1.0757932896426203E+01    5.3218409349189235E+00    1.0105880259678942E+01
H    1.2261559837604041E+00    5.3247898867990182E+00    9.4040439854353259E+00
H    1.0326619346960928E+01    6.1818197766059191E+00    1.0031953739355266E+01
O    6.5393633597834846E+00    9.2506590964130169E+00    2.1162196205903818E+01
H    6.5691261620078700E+00    9.4022276274512517E+00    2.0180000192885945E+01
H    5.6403199036428520E+00    9.4913505808098879E+00    2.1479016914909025E+01
O   -5.3058821082269676E-02    1.1010051238690862E+01    1.6953922595179513E+01
H    9.3039706642464715E-01    1.1106460620719254E+01    1.6850055050407263E+01
H   -2.1464687458715934E-01    1.0936446841667138E+01    1.7969574967917513E+01
O    8.1783405885619409E+00    2.8551888937288905E+00    1.9239131128231623E+01
H    7.3114306873462924E+00    3.0248458225687922E+00    1.9713347056826468E+01
H    8.1516104915007332E+00    3.2973890856668526E+00    1.8314525132914735E+01
O    9.3494070980150550E+00    3.2066940520170286E+00    1.0305541834348531E+01
H    9.8317213587235877E+00    2.5593705613156281E+00    9.8416382531315989E+00
H    9.8738032395350981E+00    4.0819371205113750E+00    1.0137530336300346E+01
O    4.7479921440554035E-01    5.5729411718770034E+00    2.1901786317000841E+01
H    8.2662157140371517E-01    5.0190305376526121E+00    2.2625035128387367E+01
H    4.3022384663046748E-01    6.5141833905006097E+00    2.2282054555420736E+01
O    3.9164371020024995E+00    6.9699076832537612E+00    9.9311733293073434E+00
H    3.4346040407467555E+00    6.5046609924519005E+00    9.1659454420100737E+00
H    3.7686253726180805E+00    6.5521754918760324E+00    1.0899116359905534E+01
O    6.4243624253458238E+00    8.0150342813582895E+00    9.4226717236299322E+00
H    5.5166329828752501E+00    7.7101380478530075E+00    9.6421336463093574E+00
H    6.3392032275435870E+00    9.0393592470976056E+00    9.4973462220385638E+00
O    8.1595080848610806E+00    2.7885295709982736E+00    1.2555556040085078E+01
H    8.7619330325831761E+00    2.9253862830345136E+00    1.1704035899937283E+01
H    8.7564257650964397E+00    2.8736847546208009E+00    1.3376049154246315E+01
O    5.9796153145721398E+00    3.3396582593740511E+00    1.5617751249635166E+01
H    6.1839215681539850E+00    2.5372313150591572E+00    1.5033596976729056E+01
H    5.6877061431815870E+00    2.8809953345816437E+00    1.6470430618750836E+01
O    3.7772363835606155E+00    4.9594122679719828E+00    1.6449910917560640E+01
H    4.4221853773361772E+00    4.5605370079112708E+00    1.5826133521503731E+01
H    3.5157644576410787E+00    5.9006202827985827E+00    1.6086343324727146E+01
O    9.2524436285480505E+00    1.0641384003652432E+01    1.9569674102151520E+01
H    8.6429132277549918E+00    1.2909712582066128E+00    1.9390070383693299E+01
H    9.9017751197819006E+00    1.0891064679689482E+01    2.0222677940483635E+01
O    6.3644831819856647E+00    6.8255130736202467E+00    2.2021608765722199E+01
H    6.5014517411650408E+00    7.6930259589193151E+00    2.1540532449846680E+01
H    6.5323180282344069E+00    7.1593191476663156E+00    2.2933609424220641E+01
O   -2.4043462949936711E-01    7.9689443810847900E+00    9.5858237884481312E+00
H    6.4681512264954311E-01    8.3292207607898554E+00    9.7577264491066646E+00
H    9.5490117760284949E+00    8.6238123190704545E+00    1.0165433621346782E+01
O    9.1016428000384462E+00    6.1620221057554163E+00    1.5743103104929153E+01
H    9.2599384863582852E+00    6.0270776875287275E+00    1.4802763120450702E+01
H    8.6373158167982194E+00    5.3579736145606693E+00    1.6135815499091688E+01
O    2.6236169808152745E+00    2.8903093935362514E+00    1.1479937313451224E+01
H    2.1522019055250712E+00    2.3478945724424025E+00    1.0736212197074396E+01
H    3.4534336919387849E+00    3.0256729358719978E+00    1.1022446070930748E+01
O    9.4653677294252319E+00    3.2284727085166862E+00    6.9684857669191702E+00
H    9.1816451663446905E+00    3.8111655992281444E+00    6.1883922510999332E+00
H    8.6691018133654190E+00    2.6525860257112099E+00    7.1854797226800295E+00
O    8.9287226866178884E+00    7.9525641313089732E+00    1.9583540662061001E+01
H    9.4645661426830401E+00    7.6712198963307552E+00    1.8811070350390136E+01
H    8.9268151993477876E+00    8.9556727365982169E+00    1.9512420917158227E+01
O    1.7413312471362536E+00    2.7225742933208164E+00    2.0164672839987258E+01
H    1.9317484436902863E+00    3.6057832187616898E+00    1.9805947019817296E+01
H    1.0281028388967337E+00    2.6025119461616306E+00    2.0929953859222998E+01
O    5.0988233249726962E+00    2.8522093876949706E+00    1.0181608954759611E+01
H    4.9798184310320162E+00    3.2081390918858625E+00    9.2512242167458698E+00
H    5.5797183272694832E+00    3.5784744589831945E+00    1.0709865931757358E+01
O    3.3587495396551814E+00    1.9625357291346439E+00    6.1652647302119670E+00
H    4.0582260659077241E+00    2.8328445088203349E+00    6.7196303346469257E+00
H    3.7405509374625896E+00    1.0469028736041224E+00    6.2937857403479258E+00
O    4.4447707928659090E+00    9.8248843744201029E+00    2.2442038077365126E+01
H    4.1792438357866732E+00    1.0726429856410697E+01    2.2307002341218869E+01
H    3.6195649554843716E+00    9.2718216703806302E+00    2.2126581081325423E+01
O    5.3387155524017764E+00    8.2661802436258931E+00    1.3563726950793194E+01
H    5.1547327701068451E+00    8.6000074727410478E+00    1.4519769421430810E+01
H    4.8739138371718127E+00    9.0441120260878005E+00    1.3074857674216235E+01
K    8.4163721451115379E+00    6.1040326043058677E+00    8.2715921686992342E+00
O    7.7800258096844965E-01    1.1828408735942397E+00    1.3028687976802383E+01
H    1.5218071354712642E-01    1.6300124119983921E+00    1.3690826989900287E+01
H    1.5042065722058717E+00    1.8317074732340402E+00    1.2718009323826227E+01
O    8.3942321135385072E+00    8.9658204462449600E+00    1.6411488459950714E+01
H    9.1755388416088763E+00    9.6211687296167323E+00    1.6484333571577427E+01
H    8.7313484720330372E+00    8.0703147263293449E+00    1.6240822505936535E+01
O    2.7122511396787776E+00    8.2842656364603897E+00    2.1234546966971902E+01
H    1.8648467426854627E+00    8.3327068448331314E+00    2.1697983582879136E+01
H    3.0049830794922237E+00    7.3538745205069178E+00    2.1281058956493620E+01
O    4.5583348887829374E+00    9.2284877585123546E+00    1.5972000536227503E+01
H    4.0670648040713973E+00    1.0113062474518632E+01    1.5768384187202196E+01
H    5.1372621384385369E+00    9.3925862211203164E+00    1.6785871487273468E+01
O    1.6202761478287746E+00    1.2884902589328044E+00    9.6049437365595889E+00
H    1.5367646672451789E+00    1.3748813109108364E+00    8.6221387682450743E+00
H    1.7960568358854634E+00    1.0492231839474877E+01    9.6555009079698504E+00
O    9.7370382894159668E+00    6.4198397267624312E+00    1.3190822010825157E+01
H    1.6444833324282523E-01    5.7205576662826108E+00    1.2945482709923441E+01
H    9.0723718476233337E+00    6.4664243511495805E+00    1.2455991907745375E+01
O   -1.7091137668147824E-01    9.2283414536968831E+00    7.0482639996086531E+00
H    4.5821142747082783E-01   -2.2803121752305952E-01    6.9160604294644932E+00
H   -3.1026966661615329E-01    8.9929842664209758E+00    8.0647554012369742E+00
O    7.7149958513594150E+00    9.7418091896929777E+00    6.1425025979943717E+00
H    7.4243856363517633E+00    1.0653365673275861E+01    6.4083439185876472E+00
H    8.6597574156503345E+00    9.5684856457861649E+00    6.4268018906766731E+00
O    2.9701702408670267E+00    8.8204731457860461E+00    1.8434453049283835E+01
H    3.9303788405864379E+00    8.6132201487800018E+00    1.8503671057914616E+01
H    2.6648418242810954E+00    8.6528004642919196E+00    1.9374390112011064E+01
K    7.8309640248274164E+00    4.6234023985781940E+00    2.1742119105753588E+01
O    5.7925940417011814E+00    3.2630082461316201E+00    2.0314539107165018E+01
H    5.1560862733970012E+00    3.9363634067595563E+00    2.0195304251085417E+01
H    5.2959407028202943E+00    2.5820427754393158E+00    2.0771744508076122E+01
O    5.8722464945108177E+00    5.4203259239315225E+00    7.6777252975283945E+00
O    4.6304337926089465E+00    3.5891458727895573E+00    7.4975424052708828E+00
     &END COORD
     &VELOCITY
          -1.0238721219192181E-04   -2.4976702045413183E-05    5.4112411543117394E-05
           4.3072113073864610E-06   -4.7093662820329565E-05    1.2659390525842165E-04
          -8.9000185768856131E-05    2.2908900457119507E-05    4.7580675341081603E-05
           5.1083113770059436E-06   -8.7262885034091863E-05    2.4099046874610056E-05
          -2.0073259889473971E-05    5.9840867808597982E-05   -7.7085407266280309E-05
          -7.3579896301813756E-05   -1.8286490572966192E-05    9.5672812089635177E-05
           1.1041373412149617E-04   -7.6008138964695973E-05    1.1905361692555612E-04
           6.2454718227650282E-05   -9.1922950279162006E-05   -9.0907954352528443E-06
          -3.1137827740398647E-05   -1.7027642129842767E-04    4.8677318678113691E-05
           9.7409558282987740E-05    1.5339169831032502E-04   -1.2603407440384004E-04
          -5.6977808262021914E-05   -1.1855169299885413E-04    5.8166312818619774E-05
           2.7917965099837050E-05   -5.6356663741127639E-05    8.6225972903116287E-05
          -3.4375955970651803E-05    2.5434146726867775E-05    2.3749786141957358E-05
          -4.1610284468154283E-05   -2.0151242901510904E-05   -2.4469884896823967E-05
          -6.3165377705453877E-05   -1.5799602550338687E-04   -2.1381528456342712E-05
          -1.0934627417824628E-04   -1.1453996592162949E-04   -7.0107817528360612E-05
           2.8444936405232276E-05    3.7527865209278091E-06    1.3581714098165635E-04
           1.1656524165624199E-04   -7.1226038876990982E-06    1.0418000410205797E-05
           7.6611190841720697E-05    3.7658841741203599E-05   -1.1111329835466413E-05
           1.2493555666154304E-04   -4.5166139523985119E-05   -7.5517724473784948E-05
           2.3932805001535007E-04   -5.9849956522349637E-05    3.2550227058906438E-05
          -1.0351919161651040E-04    5.2036355688594261E-05   -5.9222315379381603E-05
          -2.8779791669056567E-05    3.1520476504517447E-05   -2.8021162807750695E-06
           5.2611109547255370E-05   -4.8567598021761327E-05    8.6170646438498146E-05
           7.0501908446316675E-05    7.5108379615333620E-05   -2.5001074453549618E-05
          -4.0091893272437592E-05   -5.7099688566202587E-05    1.3658827781688794E-04
          -6.4418933962419439E-05   -1.9561294447358105E-05    1.3495645302528031E-04
           2.2008209342134071E-06    8.7516000159998402E-06    3.1703166324580232E-05
           9.0707999193769253E-05    8.1960499766441889E-05    9.4741083645927078E-05
           8.3306904474404795E-06   -6.2877617673888262E-05    8.2121362932500454E-05
          -6.2180307839193065E-05    1.2881834472486034E-05   -9.6309790063292070E-06
           9.2977807951169660E-05   -2.5261824434596195E-05   -5.8007504051572456E-05