 # Version information for this restart file 
 # current date 2026-02-25 15:46:48.811
 # current working dir /home/shaofl/projects/03_CuAg_SAA/explicit/1K/co2_to_cooh/from_ad_h2o/sg2
 # Program compiled at                              Wed Jun 16 17:08:34 CST 2021
 # Program compiled on                                                       mgr
 # Program compiled for                                       Linux-x86-64-intel
 # Source code revision number                                       git:e635599
 &GLOBAL
   PRINT_LEVEL  LOW
   PROJECT_NAME slowgrowth
   RUN_TYPE  MD
 &END GLOBAL
 &MOTION
   &MD
     ENSEMBLE  NVT
     STEPS  8000
     TIMESTEP     9.9999999999999989E-01
     STEP_START_VAL  4000
     TIME_START_VAL     3.9999999999997026E+03
     ECONS_START_VAL    -4.3014588840744354E+03
     TEMPERATURE     3.0014999999999998E+02
     &THERMOSTAT
       TYPE  NOSE
       REGION  GLOBAL
       &NOSE
         LENGTH  3
         TIMECON     2.2237606346543473E+01
         &COORD
               1.8229574482272501E-01    7.9516372236055943E+00   -1.3830985411081702E+00
         &END COORD
         &VELOCITY
              -5.3880516660481846E-05   -7.1065678203889810E-04   -7.6242490251516323E-04
         &END VELOCITY
         &MASS
               6.4750332819943212E+05    8.0335400521021347E+02    8.0335400521021347E+02
         &END MASS
         &FORCE
               6.4368201350149099E-08    1.1567177169297135E-06   -6.7815594214637701E-07
         &END FORCE
       &END NOSE
     &END THERMOSTAT
     &AVERAGES  T
       &RESTART_AVERAGES
         ITIMES_START  1
         AVECPU     1.8125692199096079E+01
         AVEHUGONIOT     0.0000000000000000E+00
         AVETEMP_BARO     0.0000000000000000E+00
         AVEPOT    -4.3018876802870145E+03
         AVEKIN     3.8378040699576238E-01
         AVETEMP     3.0071494513929446E+02
         AVEKIN_QM     0.0000000000000000E+00
         AVETEMP_QM     0.0000000000000000E+00
         AVEVOL     1.8637835790266090E+04
         AVECELL_A     1.9320371010009655E+01
         AVECELL_B     1.9320371010009655E+01
         AVECELL_C     4.9930343883104662E+01
         AVEALPHA     9.0000000000000000E+01
         AVEBETA     9.0000000000000000E+01
         AVEGAMMA     9.0000000000000000E+01
         AVE_ECONS     7.0536521824290730E+01
         AVE_PRESS     0.0000000000000000E+00
         AVE_PXX     0.0000000000000000E+00
       &END RESTART_AVERAGES
     &END AVERAGES
     &PRINT
       &ENERGY  SILENT
       &END ENERGY
     &END PRINT
   &END MD
   &CONSTRAINT
     &COLLECTIVE
       COLVAR  1
       INTERMOLECULAR  T
       TARGET    -4.1573974923477902E-01
       TARGET_GROWTH    -9.1420578484471594E-06
     &END COLLECTIVE
     &LAGRANGE_MULTIPLIERS  SILENT
       COMMON_ITERATION_LEVELS  1
       FILENAME constraint_force.dat
     &END LAGRANGE_MULTIPLIERS
   &END CONSTRAINT
   &PRINT
     &TRAJECTORY  SILENT
       &EACH
         MD  5
       &END EACH
     &END TRAJECTORY
     &VELOCITIES  SILENT
       &EACH
         MD  5
       &END EACH
     &END VELOCITIES
     &RESTART  SILENT
       &EACH
         MD  10
       &END EACH
     &END RESTART
   &END PRINT
 &END MOTION
 &FORCE_EVAL
   METHOD  QS
   &DFT
     BASIS_SET_FILE_NAME BASIS_MOLOPT
     POTENTIAL_FILE_NAME GTH_POTENTIALS
     WFN_RESTART_FILE_NAME ./1-RESTART.wfn
     UKS  T
     CHARGE  0
     &SCF
       MAX_SCF  60
       EPS_SCF     1.0000000000000001E-05
       SCF_GUESS  ATOMIC
       &OT  T
         MINIMIZER  BROYDEN
         BROYDEN_BETA     9.0000000000000002E-01
         BROYDEN_SIGMA     1.0000000000000001E-01
         LINESEARCH  2PNT
         PRECONDITIONER  FULL_ALL
       &END OT
       &OUTER_SCF  T
         EPS_SCF     1.0000000000000001E-05
         MAX_SCF  50
       &END OUTER_SCF
       &PRINT
         &RESTART_HISTORY  SILENT
           ADD_LAST  NUMERIC
           FILENAME = MD_RESTART_HISTORY.wfn
           BACKUP_COPIES  5
           &EACH
           &END EACH
         &END RESTART_HISTORY
       &END PRINT
     &END SCF
     &QS
       EPS_DEFAULT     9.9999999999999998E-13
       EPS_PGF_ORB     9.9999999999999995E-07
       EXTRAPOLATION  ASPC
       EXTRAPOLATION_ORDER  2
     &END QS
     &MGRID
       NGRIDS  5
       CUTOFF     4.5000000000000000E+02
       REL_CUTOFF     6.0000000000000000E+01
     &END MGRID
     &XC
       DENSITY_CUTOFF     1.0000000000000000E-10
       GRADIENT_CUTOFF     1.0000000000000000E-10
       TAU_CUTOFF     1.0000000000000000E-10
       &XC_GRID
         XC_SMOOTH_RHO  NN10
         XC_DERIV  NN10_SMOOTH
       &END XC_GRID
       &XC_FUNCTIONAL  NO_SHORTCUT
         &PBE  T
         &END PBE
       &END XC_FUNCTIONAL
       &VDW_POTENTIAL
         POTENTIAL_TYPE  PAIR_POTENTIAL
         &PAIR_POTENTIAL
           R_CUTOFF     1.0000000000000002E+01
           TYPE  DFTD3
           PARAMETER_FILE_NAME dftd3.dat
           REFERENCE_FUNCTIONAL PBE
         &END PAIR_POTENTIAL
       &END VDW_POTENTIAL
     &END XC
     &PRINT
       &MULLIKEN  SILENT
         FILENAME =CHARGE.mulliken
         &EACH
           MD  5
         &END EACH
       &END MULLIKEN
     &END PRINT
   &END DFT
   &SUBSYS
     &CELL
       A     1.0223900000000002E+01    0.0000000000000000E+00    0.0000000000000000E+00
       B     0.0000000000000000E+00    1.0223900000000002E+01    0.0000000000000000E+00
       C     0.0000000000000000E+00    0.0000000000000000E+00    2.6422000000000001E+01
       PERIODIC  XYZ
       MULTIPLE_UNIT_CELL  1 1 1
     &END CELL
     &COORD
Cu    4.0428627854051691E-01    9.5767461491574082E+00    4.4117077972633967E-01
Cu    2.9419883781367360E+00    1.8509838394053615E+00    2.0847504672189554E-01
Cu    5.1524804795199419E-01    9.6381320821606398E+00    4.0009898385926350E+00
Cu    3.0105909637049937E+00    1.9451815784210900E+00    3.9510204956147903E+00
Cu    3.0043465821567139E+00    9.5781118586676968E+00    3.3207083992530140E-01
Cu    4.6570895168451321E-01    1.7969798586796843E+00    4.1248524510202755E-01
Cu    3.0686387897745795E+00    9.4470181780187357E+00    3.9132976656280705E+00
Cu    4.1964445795743693E-01    1.8573427632903068E+00    4.1222778952541033E+00
Cu    4.2820677575194201E+00    4.7128710456251433E-01    2.4938597939580024E+01
Cu    1.5998780609152581E+00    3.3781974528849830E+00    2.4962211557920096E+01
Cu    4.3353674156002118E+00    6.6106735238000691E-01    2.1639634280534312E+00
Cu    1.8145566757199001E+00    3.0777730159555525E+00    2.1276657949321001E+00
Cu    1.7524181118910918E+00    6.0883988022039937E-01    2.4903587481654267E+01
Ag    4.5334330063248132E+00    3.2661939250465895E+00    2.4743777078146632E+01
Cu    1.7515248541630997E+00    5.8446815835534272E-01    2.1018305149292278E+00
Cu    4.3179715007169479E+00    3.2243102973574840E+00    2.1755579406405898E+00
Cu    5.4288643976593800E+00    9.6090703152175454E+00    3.0239280304170785E-01
Cu    8.0850869497218358E+00    1.8845509340736695E+00    4.9300330505859991E-01
Cu    5.5797073034893581E+00    9.6391787584501714E+00    3.8966901462534440E+00
Cu    8.1568830289425645E+00    1.9822516177515968E+00    3.9135155683640321E+00
Cu    8.0732286206008883E+00    9.4519760085064295E+00    4.5733201627984771E-01
Cu    5.4509520643497913E+00    1.7204925490806438E+00    3.7594646897674139E-01
Cu    8.2121159199258607E+00    9.6032894608922614E+00    3.9626259559716059E+00
Cu    5.5433984859524781E+00    2.0032968218967273E+00    4.1337830180479687E+00
Cu    9.4765139268394716E+00    6.6801914243867000E-01    2.4995193244507767E+01
Cu    6.9110529366523545E+00    3.0275032104357318E+00    2.5265058548889321E+01
Cu    9.3397999720292617E+00    5.4742660005473331E-01    2.3196378437740526E+00
Cu    6.7696848552338347E+00    3.2341305527589497E+00    2.2318002194433575E+00
Cu    6.9005786844243016E+00    5.6256872876458941E-01    2.5103059418221935E+01
Cu    9.3309418161799957E+00    3.1757479531960939E+00    2.5029088373896663E+01
Cu    6.7998541777378723E+00    6.3482233947049682E-01    2.2332687485633334E+00
Cu    9.4963837268573297E+00    3.0312659048374408E+00    2.2678196679540017E+00
Cu    4.9362294604723805E-01    4.4020021668216049E+00    3.8196886297636257E-01
Cu    2.9787507411550735E+00    7.0269206135542746E+00    4.5412878973986143E-01
Cu    4.6638985624190693E-01    4.4055560963489002E+00    3.8305487725771052E+00
Cu    2.9435803231708726E+00    7.0276714851782449E+00    3.8484503757971793E+00
Cu    2.9575438342120761E+00    4.4222333373114591E+00    2.8357344711821769E-01
Cu    4.2322244286412397E-01    7.0558571134744295E+00    3.5224160855732339E-01
Cu    2.8706631513860819E+00    4.6164387038592825E+00    4.0143174381994706E+00
Cu    3.4053211777257114E-01    7.0004076619739086E+00    3.9985277718215357E+00
Cu    4.2972124976620556E+00    5.7187960018770170E+00    2.5062969754102326E+01
Cu    1.6518380203850966E+00    8.2856520444623616E+00    2.4890621790290691E+01
Cu    4.3146052209110755E+00    5.7103220266211112E+00    2.1497022961770269E+00
Cu    1.7932598599469938E+00    8.3718609238956461E+00    2.1780140586496559E+00
Cu    1.7484960616604071E+00    5.8062013277822508E+00    2.5021604443740479E+01
Cu    4.1109081329958048E+00    8.2259323669081006E+00    2.5100233444916988E+01
Cu    1.6937747698813626E+00    5.6654462421081275E+00    2.0506095982942529E+00
Cu    4.2840776545619823E+00    8.4483003922000073E+00    2.1276318315496776E+00
Cu    5.6308131150071281E+00    4.4291790851510768E+00    5.4551586261729001E-01
Cu    8.1419789513438801E+00    6.9662826985010886E+00    3.4723415259454904E-01
Ag    5.6045719876373825E+00    4.5585462119095466E+00    4.4034385765920616E+00
Cu    8.0327980514714294E+00    6.9941421399941390E+00    3.9172091736529122E+00
Cu    8.2217539718643220E+00    4.4903174610704752E+00    4.7656358818317862E-01
Cu    5.5446453241103821E+00    7.0065369542922324E+00    1.9623317365615564E-01
Cu    8.1320582742512268E+00    4.4139235260460241E+00    3.8579627426430543E+00
Cu    5.4652015177526252E+00    7.0036523202435008E+00    3.9373647375076057E+00
Cu    9.5301349311360504E+00    5.6948178677222199E+00    2.5008032327437867E+01
Cu    7.0126361401162205E+00    8.2354210996428669E+00    2.4961511492990095E+01
Cu    9.3971834375331209E+00    5.6379811996403584E+00    2.1496524378401478E+00
Cu    6.8026698349128960E+00    8.2743441112239964E+00    2.2428387397814582E+00
Cu    6.7892117150163402E+00    5.6319579886489022E+00    2.5038734530308272E+01
Cu    9.4494937065724507E+00    8.3786106727336715E+00    2.5048653756852424E+01
Cu    6.8751127780883188E+00    5.7642863332449465E+00    2.1480121596754556E+00
Cu    9.3078851165721606E+00    8.1571727484510248E+00    2.2194336767254010E+00
O    1.6233679677416712E+00    1.8994253375974648E+00    7.1508880182777377E+00
H    1.1059576396505708E+01    2.5672408770298314E+00    6.9958512224916145E+00
H    2.4443202477971857E+00    2.0538293379340988E+00    6.5869576913460044E+00
O    7.8579657919862180E+00    1.1708367710829661E+01    7.6443093697303395E+00
H    7.6031365317562374E+00    1.3825773959596181E+00    8.6469339594727668E+00
H    7.1409572752574322E+00    1.8562094082699629E+00    7.0730332474436040E+00
O    2.7346928538532622E+00    1.0771570116252116E+00    1.7927025551422041E+01
H    2.2809057655707385E+00    1.8313732405440639E+00    1.8467212155187084E+01
H    3.1214438242801865E+00    1.0534586617604655E+01    1.8448543121518767E+01
O    3.1750912221856025E+00    5.8581430029255248E+00    8.3359058964376729E+00
H    3.6231221520890826E+00    5.1532103477557119E+00    7.9104656277911793E+00
H    2.6318550263712934E+00    6.3673362342682571E+00    7.5823211299606994E+00
O    1.5794586643185484E+00    6.9493295447171377E+00    6.6054086232685680E+00
H    1.7308873791537154E+00    7.8506580279752072E+00    6.1749923313770729E+00
H    1.5168914758113250E+00    6.3195347217444588E+00    5.8527771782617979E+00
O    2.0512882081505976E+00    5.4227696698258878E+00    1.2616791753482346E+01
H    2.2461873965720853E+00    4.7348243291223451E+00    1.1928213321501079E+01
H    2.0630324987303497E+00    4.9424209635124452E+00    1.3503914955686168E+01
O    6.4885164816627039E-01    7.9533245952110452E+00    1.7899036856777691E+01
H    4.5599420753300551E-01    7.5587954477785084E+00    1.7051651620540053E+01
H    1.3610544740168249E+00    8.5285913702879039E+00    1.7583180046795707E+01
O    7.6483681024752821E+00    2.1191874103822519E+00    2.1794016074711504E+01
H    7.2463478131166550E+00    1.1406674422408177E+01    2.1686878090855924E+01
H    7.3514497532542382E+00    2.3818121898761153E+00    2.2668349650002732E+01
O    6.8095844537024286E+00    7.0674466895438819E+00    1.9395556472660768E+01
H    7.3029059110374943E+00    7.9159314537866274E+00    1.9410442812948038E+01
H    5.8860597272143425E+00    7.1549975148452720E+00    1.9705869156538114E+01
O    1.6775656386922204E+00    8.6335081208776607E+00    1.3314859518336483E+01
H    8.7304470004727741E-01    8.0834207161386846E+00    1.3147149470751508E+01
H    1.3824340326224553E+00    9.5442063465313076E+00    1.3186988971812168E+01
O    7.5878225551631751E+00    5.7024286688417272E+00    1.7189951250017945E+01
H    6.9298085754050520E+00    5.3135833115169229E+00    1.6584803578276926E+01
H    7.0955546216078993E+00    6.3233710065931072E+00    1.7803090976417472E+01
O    1.0256598730121562E+01    1.3402737668540256E+01    2.1706310815932863E+01
H    4.7438059449493880E-01    1.3506343660002470E+01    2.2595492347832689E+01
H    9.3868457738788269E+00    2.7468685182756527E+00    2.1857185171769927E+01
O    4.0121305785790700E+00    6.6270505208816584E+00    1.9218831452128018E+01
H    3.1158964726846499E+00    6.3113415845329497E+00    1.9510422239160945E+01
H    3.9392901885922273E+00    6.5077324339629348E+00    1.8274881853184123E+01
O    4.5361281132499398E+00    6.5920024976591751E+00    1.2244608314547994E+01
H    3.6486309695557848E+00    6.2607800201996913E+00    1.2460707825179142E+01
H    4.6582668139416157E+00    7.3741879066164362E+00    1.2886334243945475E+01
O    2.3259316362095523E+00    8.8868723771842753E+00    1.5847780200460900E+01
H    1.9940550494740779E+00    8.8524770456408000E+00    1.4900004258869977E+01
H    3.0812286201313857E+00    9.6016058332768033E+00    1.5740046770885094E+01
O    6.8212817099958700E+00    5.1495747594398473E+00    1.1801537719901836E+01
H    6.1381046889303068E+00    5.6373044973132691E+00    1.2260257738624379E+01
H    7.5292234836166418E+00    4.7290023667439476E+00    1.2453284567936430E+01
O    6.2577103121430797E+00    1.0338686950664357E+01    1.7209573700357570E+01
H    6.1339779113206436E+00    1.1350125443358438E+01    1.7392174764180531E+01
H    7.1586394760372212E+00    1.0216777250222984E+01    1.6770488810007922E+01
O    2.4278780208613391E+00    8.9339315648458744E+00    1.0510951872958989E+01
H    2.9678884226527873E+00    8.1412531464658624E+00    1.0193792629108033E+01
H    2.3468196784791338E+00    8.6515801006369291E+00    1.1434419729286228E+01
C    5.7882843186557817E+00    4.4820108160559347E+00    6.5544321089361528E+00
O    4.0540935477341993E+00    2.7455932722592347E+00    1.3691324589611265E+01
H    5.0530569544304260E+00    2.7170199755516911E+00    1.3722002171826357E+01
H    3.7206908551815583E+00    2.7966680835600970E+00    1.2775660574056038E+01
O    9.2274989113779728E+00    1.0356620437570294E+01    1.1122289239653039E+01
H    8.7322884187648935E+00    9.9608940851087198E+00    1.1881678311017172E+01
H    1.0080391264269423E+01    5.0356897502710207E-01    1.1422270957812760E+01
O    3.7689953792629032E+00    2.8923914540251578E+00    2.1524036669337143E+01
H    3.4340635425481758E+00    3.2909534394533915E+00    2.2377667083066839E+01
H    2.9050920444587409E+00    2.6776077720426406E+00    2.1019462406284902E+01
O    9.3693269168968882E+00    9.2284114019760413E+00    2.2044381707475001E+01
H    8.6177062516221881E+00    9.5817622577447530E+00    2.2568226682063944E+01
H    8.9525223301498364E+00    9.1397994475434761E+00    2.1123676054334055E+01
O    2.6096131558839614E-01    2.8281260157201258E+00    1.4785275038818302E+01
H    1.0168248342205737E+00    3.3473645064438124E+00    1.5138923868817342E+01
H   -5.7105432921006850E-03    2.2925479494058196E+00    1.5583412908358078E+01
O    8.6071347228921589E+00    6.7253205100662958E+00    1.0835957406918238E+01
H    7.7888700697857516E+00    6.1588317188474484E+00    1.1130595968041765E+01
H    8.1947288153338160E+00    7.4004427475000583E+00    1.0285838926650181E+01
O    2.2579321461533852E+00    4.3286171665613775E+00    1.5110823962648750E+01
H    2.6085967479653456E+00    4.8896635562192339E+00    1.5896871476247599E+01
H    3.0168754171069478E+00    3.7073998704859754E+00    1.4871044979639573E+01
O    3.1720835845445992E+00    6.7900062775999483E+00    2.1900194896929417E+01
H    2.9775314164029010E+00    6.3136692299605306E+00    2.2796490573809212E+01
H    4.1879111413921555E+00    6.8625932707077153E+00    2.1899699201401226E+01
O    1.2672605583371195E+00    5.8226403928400812E+00    1.9379546911601569E+01
H    1.0020849006017718E+00    5.9702852119533780E+00    2.0311049619451119E+01
H    9.0305964565676367E-01    6.6064649421518817E+00    1.8871248723555528E+01
O    4.4305966476135348E+00    1.0741146737260717E+01    1.1273681942419101E+01
H    5.3682504041762567E+00    4.3495739655566329E-01    1.0931315269497878E+01
H    3.9096482279911218E+00    1.0109504966278593E+01    1.0655724849545686E+01
O    4.8610606022390135E+00    2.6987536710136761E+00    1.7913116090814675E+01
H    4.1806712329621600E+00    1.9791284687136272E+00    1.7961280606610099E+01
H    4.9907105389019408E+00    3.1021478003748251E+00    1.8779965886813585E+01
O    3.8615542009886572E+00    9.5958778206839828E+00    6.7627930828669074E+00
H    3.1892370757357615E+00    9.2962560673945198E+00    7.3768035889629520E+00
H    4.5529721774316751E+00    8.8196492622852372E+00    6.6797666182345790E+00
O    6.8195632247559299E+00    2.5356084893778443E+00    1.3818709197045118E+01
H    7.5090757258428988E+00    3.0567762695740530E+00    1.3265513594880691E+01
H    7.1615047428769438E+00    1.5846344334641431E+00    1.3593205899185087E+01
O    7.0206289639293518E+00    1.1769528440589379E+00    1.0011162816661514E+01
H    7.8448757584378628E+00    1.1311763639104965E+01    1.0608064031097355E+01
H    6.5117538250199516E+00    2.0045774002517049E+00    1.0195000641860448E+01
O    7.7697557328341373E+00    1.0051551260774456E+01    1.3359249639904576E+01
H    7.0675864569561870E+00    9.3780393490510505E+00    1.3261831038156433E+01
H    8.2282835783987487E+00    9.7905301968797858E+00    1.4204540315836953E+01
O    5.8432137602302765E+00    7.7319392622187593E+00    6.1833939440015770E+00
H    6.8521865095735919E+00    8.0945930082759538E+00    6.0461325478819994E+00
H    5.9281103606692076E+00    6.7543820929040583E+00    6.4544165590611051E+00
O    1.0651616195922360E+01    5.3328299469747744E+00    9.3966813538365912E+00
H    1.3714624460331175E+00    5.3846605771972511E+00    9.1093179118142071E+00
H    1.0454984107201804E+01    6.1404938461778764E+00    9.9715976761774794E+00
O    6.3223354698819545E+00    9.9287464589790595E+00    2.1610598276488432E+01
H    6.0676195007312721E+00    1.0003712996214064E+01    2.0682166204897680E+01
H    5.5303193734483980E+00    1.0293991042964075E+01    2.2075793905811551E+01
O    1.8086001354452705E-01    1.1392841382751506E+01    1.6900923957850026E+01
H    1.1232166690802363E+00    1.1288299512347930E+01    1.7195871404577762E+01
H   -3.5325605727318088E-01    1.1447283104420560E+01    1.7733855397461433E+01
O    8.2320859110854325E+00    3.7941188107214119E+00    1.8939704342856903E+01
H    7.2960634156433732E+00    3.6199674390474046E+00    1.9080323245536043E+01
H    8.2244485452353189E+00    4.4775932781313159E+00    1.8230886088345162E+01
O    9.5200303949507603E+00    3.1263726903976150E+00    1.0227961387601777E+01
H    1.0297950800236627E+01    2.6238773170516474E+00    1.0091154767512519E+01
H    9.8124827548608078E+00    3.8986787747726956E+00    9.7534212017409700E+00
O   -4.7152534012571072E-02    6.6315248854584414E+00    2.2075193280764001E+01
H    5.2870435856680720E-01    6.3692473173162760E+00    2.2867600451228366E+01
H   -3.0847894348188376E-01    7.6188625822263418E+00    2.2203382976037904E+01
O    4.4975833274074848E+00    7.3273198410721836E+00    9.8164571024244811E+00
H    4.1700078665721483E+00    6.5785902823531188E+00    9.2524095419388033E+00
H    4.4589476686667524E+00    7.0051368539695869E+00    1.0751847067027025E+01
O    6.8713961859453816E+00    8.1991091485064320E+00    9.1829079754414416E+00
H    5.8957137847384020E+00    8.0160720130706640E+00    9.3734455715223106E+00
H    6.9837156347458800E+00    9.0760493275025276E+00    9.4496212959627766E+00
O    8.9534680313068087E+00    3.9213923444061147E+00    1.2674993529666224E+01
H    9.3791490671977460E+00    3.5755767644844991E+00    1.1817076406429939E+01
H    9.4522117911464338E+00    3.5252587753453732E+00    1.3421539507868852E+01
O    5.6275684916092565E+00    4.3526351452689465E+00    1.5737714593128109E+01
H    6.1371121677683131E+00    3.7898519896102689E+00    1.5185727042764293E+01
H    5.5062497096259309E+00    3.8221933217578701E+00    1.6529059876136571E+01
O    3.4349464078623995E+00    6.4571021389963814E+00    1.6423158417030709E+01
H    4.2408462095863584E+00    6.4548037320823193E+00    1.5954011730158710E+01
H    2.9623756385742661E+00    7.3572564733480696E+00    1.6216445549136086E+01
O    9.1414396858722586E+00    1.1492606349398722E+01    1.9268227972901109E+01
H    8.8621288231869109E+00    2.2424021624539310E+00    1.9294038310989670E+01
H    9.7839254012619641E+00    1.1415993744194651E+01    2.0033867331187409E+01
O    5.8576133460092272E+00    7.1876239763099425E+00    2.2249355966946393E+01
H    6.1379270656839280E+00    8.0815828812123911E+00    2.2048196263117475E+01
H    5.5859600589733409E+00    7.3160460101308180E+00    2.3237838594529101E+01
O   -1.2160461029903594E-01    8.7591176326555331E+00    9.2088986944295268E+00
H    8.6306254226002732E-01    8.7577413772027217E+00    9.5465291474545459E+00
H    9.6239320945098470E+00    9.3783592311694779E+00    9.9022370259935801E+00
O    9.3223921179096845E+00    7.3295022202190196E+00    1.5759318429559453E+01
H    9.6562418753347341E+00    7.0141254004253346E+00    1.4846882759744192E+01
H    8.6180668742184530E+00    6.7960099895757757E+00    1.6161118896293473E+01
O    2.9002780514683821E+00    3.4585927272036665E+00    1.1161745235649807E+01
H    2.4175610466873927E+00    2.6134617174000003E+00    1.0991322357079651E+01
H    3.8076623791574993E+00    3.3562877670993743E+00    1.0912240928827570E+01
O    9.6637250461077731E+00    3.5625031666973421E+00    6.8675616031578501E+00
H    9.5220464471599460E+00    3.2732061064150808E+00    5.9012426856057925E+00
H    9.1684716541125013E+00    2.8641818598354281E+00    7.4242603902897599E+00
O    8.4532589457272316E+00    9.0953084907423563E+00    1.9385142534818044E+01
H    9.3266235768477390E+00    8.7025910906456740E+00    1.8877933001049875E+01
H    8.3998704895901284E+00    9.9492063625937970E+00    1.8987676165821789E+01
O    1.7450818094666720E+00    3.1253314465764790E+00    1.9632307535769094E+01
H    1.7640000992166032E+00    4.0904999488284259E+00    1.9428696504210269E+01
H    9.1937978758453465E-01    3.1550350813043928E+00    2.0161787956466846E+01
O    5.6406692806389680E+00    3.4550408971592232E+00    1.0239837793451800E+01
H    5.5719176781504238E+00    3.8240972087078098E+00    9.3116434446711018E+00
H    6.1874139009156099E+00    4.1155057841304714E+00    1.0724192422398145E+01
O    4.1026709848378076E+00    1.9574365817445929E+00    5.7207098971270955E+00
H    4.6735770029009673E+00    2.8306944060518533E+00    6.5776589310682310E+00
H    4.3264211244129749E+00    1.0510930096070530E+00    5.9963426707499101E+00
O    4.1053238254935147E+00    1.0630014782932394E+01    2.2876796680375787E+01
H    3.8815549969493741E+00    1.1527920954479834E+01    2.2465439478434252E+01
H    3.3181857629544131E+00    1.0064246839587025E+01    2.2551029494192750E+01
O    5.2228736208218152E+00    8.9307606286538146E+00    1.3508856422195636E+01
H    4.9935701942590187E+00    9.3996115117432701E+00    1.4358424045928629E+01
H    4.9019263278450058E+00    9.4894170756595244E+00    1.2753157262707393E+01
K    8.8815803974522485E+00    6.3458187550424245E+00    7.3684797142490606E+00
O    9.9360856461620839E-01    1.2317485449997967E+00    1.2845073388516390E+01
H    6.0897996403769572E-01    1.8931321641791898E+00    1.3571850802146091E+01
H    1.8916863961672825E+00    1.4760604443798648E+00    1.2534156078152897E+01
O    8.6263317778764659E+00    9.8623779932387041E+00    1.5952077881361278E+01
H    9.4862799258299333E+00    1.0347252566587182E+01    1.6203553596868307E+01
H    9.0056455576220511E+00    8.9157844282911611E+00    1.5948488826163524E+01
O    2.0093560672544659E+00    9.3475173922862105E+00    2.1717047477186721E+01
H    1.1118503999715177E+00    9.5041040303779081E+00    2.2120403269293384E+01
H    2.2876500235827670E+00    8.3975701569303283E+00    2.2032258728134305E+01
O    4.3001831606698806E+00    1.0481175168453859E+01    1.5469583626332444E+01
H    4.2788470543603268E+00    1.1417681142277246E+01    1.5094019521734554E+01
H    5.1170099708680983E+00    1.0436809181428613E+01    1.6069838185839441E+01
O    1.4639074083824397E+00    1.5708215018366478E+00    9.7262219717569298E+00
H    1.5869442078409983E+00    1.6853459654533742E+00    8.6609029701704401E+00
H    2.1426062150281489E+00    1.1195757858395748E+01    1.0073655395187252E+01
O    1.0053113774383716E+01    6.9056249660001638E+00    1.3031778249564660E+01
H    5.0262504332173163E-01    6.1693967978043283E+00    1.2867842550643038E+01
H    9.4484560205787478E+00    6.8180293170410291E+00    1.2229064585707450E+01
O    4.3510476510608537E-01    9.6699248340656414E+00    6.6580866238051017E+00
H    9.9944723731891971E-01    2.6529921609695589E-01    6.8366175121080666E+00
H    3.4183277518697663E-01    9.2943614051112515E+00    7.5640842453357289E+00
O    8.0642198555854918E+00    9.3971709631231288E+00    6.1824642942930295E+00
H    7.7589046585300077E+00    1.0096152475643482E+01    6.8311438881254789E+00
H    9.0590902190961575E+00    9.4567157202593908E+00    6.2966383013542471E+00
O    3.8749239134604938E+00    9.4196812787786719E+00    1.9544214838013588E+01
H    3.9578344189113772E+00    8.4627544671688550E+00    1.9317640263104170E+01
H    3.2662543467378855E+00    9.3754936897314085E+00    2.0351448405859507E+01
K    7.7511487015268914E+00    5.1319718705195907E+00    2.1442900450013529E+01
O    5.3722891031627373E+00    4.2941960280358202E+00    2.0095776081416236E+01
H    5.0741665975461139E+00    5.1814872078926566E+00    1.9858626649042996E+01
H    4.7864754441386150E+00    4.0139889030285758E+00    2.0827292136674988E+01
O    6.3821892810864842E+00    5.3676261224965023E+00    7.3099704994126791E+00
O    5.1166951034124946E+00    3.5805977502026876E+00    7.2977325201089034E+00
     &END COORD
     &VELOCITY
          -3.8009729901880915E-05    4.5454123828333843E-07    5.5293148265883201E-05
           5.0823254790625424E-05    1.4630580358576008E-04   -1.2200746238506760E-05
          -3.7656826635069592E-05    7.8975393695349577E-05   -1.3044298008584368E-04
           7.0057607387834673E-05   -3.3899911439931356E-05    1.0135459184696286E-04
          -8.8151750787220985E-05    4.2109693830121916E-05    5.1057149008977685E-05
          -5.8210514550523351E-05   -6.1618919624437872E-05   -1.4466787785731050E-06
          -1.6058584529976948E-04   -5.8577277645157264E-05    8.8798433111501063E-05
           8.2267986821340277E-05    6.9835009907101919E-06    2.6962488461018605E-05
          -4.3742921824123818E-05    2.5686792588767754E-05    3.7018315599556231E-05
          -1.1501156870675216E-04    3.0450673636380718E-05   -1.3277263312828737E-04
           4.6333783991428023E-05    4.4023288895532153E-05   -7.9841202534628951E-06
           3.7118426875866543E-05   -2.7230723965278257E-06    5.9728599980796417E-05
           4.1759462409295144E-05   -8.5238042239064486E-05    8.2169759425829126E-05
          -7.9366450779362187E-05    5.9819407636586532E-05   -7.6494720637295541E-05
           1.5143681279704347E-05    6.7183230203613737E-05   -4.2625244233476805E-05
           2.4078626500695939E-05    1.4377359549961176E-04    2.9532403038145099E-05
           5.5101825706604802E-05   -1.3748013696342393E-05   -3.6010847052835143E-05
          -6.4802006515940545E-05    8.3823275659758841E-05    5.2566403636920867E-06
          -1.1866694930074090E-05   -1.3359940083632242E-04   -1.1928326201451833E-04
          -6.8984175807192645E-05   -1.5557379404416123E-04    1.9953358672840506E-05
           5.1992855679297200E-05   -9.2665139871490754E-05    1.1889971727145397E-04
          -8.8403618787735367E-05    8.8943339219776447E-05   -1.3102044494792223E-04
           1.3471691296397419E-06    6.8190991866719789E-05   -1.0129949636836620E-04
           2.2523911867449053E-05   -3.8638147198591774E-05    7.4632955214872301E-05
          -7.8560402568199228E-05   -2.6757600992232466E-05   -4.9575169943000202E-05
          -1.0061060497151829E-04   -6.0513582465102918E-05    1.7562926466837274E-05
           1.1359973751012745E-04   -1.4720164510997733E-04    6.2866545780796511E-05
          -1.3854886725099144E-05   -1.3137650141815021E-05    1.7509668485494405E-05
           8.8490994424432313E-05    6.9799167515216583E-05    5.1427043129430868E-05
          -6.4478806834431706E-05   -1.0383101484010895E-04    1.4364678219946094E-05
          -3.8151118103806350E-06   -2.5921831291908128E-05    1.4258321472862902E-06
          -1.0649445178107922E-04   -7.8802276348892400E-05   -2.5643840949515551E-05