 # Version information for this restart file 
 # current date 2026-02-25 13:17:19.367
 # current working dir /home/shaofl/projects/03_CuAg_SAA/explicit/1K/co2_to_cooh/from_ad_h2o/sg2
 # Program compiled at                              Wed Jun 16 17:08:34 CST 2021
 # Program compiled on                                                       mgr
 # Program compiled for                                       Linux-x86-64-intel
 # Source code revision number                                       git:e635599
 &GLOBAL
   PRINT_LEVEL  LOW
   PROJECT_NAME slowgrowth
   RUN_TYPE  MD
 &END GLOBAL
 &MOTION
   &MD
     ENSEMBLE  NVT
     STEPS  8000
     TIMESTEP     9.9999999999999989E-01
     STEP_START_VAL  3500
     TIME_START_VAL     3.4999999999997681E+03
     ECONS_START_VAL    -4.3014588840744354E+03
     TEMPERATURE     3.0014999999999998E+02
     &THERMOSTAT
       TYPE  NOSE
       REGION  GLOBAL
       &NOSE
         LENGTH  3
         TIMECON     2.2237606346543473E+01
         &COORD
               2.6531854164252566E-01    4.8787066956139631E+00   -3.3453881809929353E-01
         &END COORD
         &VELOCITY
               6.3424475551977960E-06    1.2363704811839951E-03    1.3860796843988999E-03
         &END VELOCITY
         &MASS
               6.4750332819943212E+05    8.0335400521021347E+02    8.0335400521021347E+02
         &END MASS
         &FORCE
              -1.0638664814148934E-07   -1.1507663313659686E-06    3.4542296273888476E-07
         &END FORCE
       &END NOSE
     &END THERMOSTAT
     &AVERAGES  T
       &RESTART_AVERAGES
         ITIMES_START  1
         AVECPU     1.8152377735986253E+01
         AVEHUGONIOT     0.0000000000000000E+00
         AVETEMP_BARO     0.0000000000000000E+00
         AVEPOT    -4.3018870267992197E+03
         AVEKIN     3.8377609715558603E-01
         AVETEMP     3.0071156812127020E+02
         AVEKIN_QM     0.0000000000000000E+00
         AVETEMP_QM     0.0000000000000000E+00
         AVEVOL     1.8637835790266097E+04
         AVECELL_A     1.9320371010009612E+01
         AVECELL_B     1.9320371010009612E+01
         AVECELL_C     4.9930343883104534E+01
         AVEALPHA     9.0000000000000000E+01
         AVEBETA     9.0000000000000000E+01
         AVEGAMMA     9.0000000000000000E+01
         AVE_ECONS     6.1358397304096528E+01
         AVE_PRESS     0.0000000000000000E+00
         AVE_PXX     0.0000000000000000E+00
       &END RESTART_AVERAGES
     &END AVERAGES
     &PRINT
       &ENERGY  SILENT
       &END ENERGY
     &END PRINT
   &END MD
   &CONSTRAINT
     &COLLECTIVE
       COLVAR  1
       INTERMOLECULAR  T
       TARGET    -2.2676713594621073E-01
       TARGET_GROWTH    -9.1420578484471594E-06
     &END COLLECTIVE
     &LAGRANGE_MULTIPLIERS  SILENT
       COMMON_ITERATION_LEVELS  1
       FILENAME constraint_force.dat
     &END LAGRANGE_MULTIPLIERS
   &END CONSTRAINT
   &PRINT
     &TRAJECTORY  SILENT
       &EACH
         MD  5
       &END EACH
     &END TRAJECTORY
     &VELOCITIES  SILENT
       &EACH
         MD  5
       &END EACH
     &END VELOCITIES
     &RESTART  SILENT
       &EACH
         MD  10
       &END EACH
     &END RESTART
   &END PRINT
 &END MOTION
 &FORCE_EVAL
   METHOD  QS
   &DFT
     BASIS_SET_FILE_NAME BASIS_MOLOPT
     POTENTIAL_FILE_NAME GTH_POTENTIALS
     WFN_RESTART_FILE_NAME ./1-RESTART.wfn
     UKS  T
     CHARGE  0
     &SCF
       MAX_SCF  60
       EPS_SCF     1.0000000000000001E-05
       SCF_GUESS  ATOMIC
       &OT  T
         MINIMIZER  BROYDEN
         BROYDEN_BETA     9.0000000000000002E-01
         BROYDEN_SIGMA     1.0000000000000001E-01
         LINESEARCH  2PNT
         PRECONDITIONER  FULL_ALL
       &END OT
       &OUTER_SCF  T
         EPS_SCF     1.0000000000000001E-05
         MAX_SCF  50
       &END OUTER_SCF
       &PRINT
         &RESTART_HISTORY  SILENT
           ADD_LAST  NUMERIC
           FILENAME = MD_RESTART_HISTORY.wfn
           BACKUP_COPIES  5
           &EACH
           &END EACH
         &END RESTART_HISTORY
       &END PRINT
     &END SCF
     &QS
       EPS_DEFAULT     9.9999999999999998E-13
       EPS_PGF_ORB     9.9999999999999995E-07
       EXTRAPOLATION  ASPC
       EXTRAPOLATION_ORDER  2
     &END QS
     &MGRID
       NGRIDS  5
       CUTOFF     4.5000000000000000E+02
       REL_CUTOFF     6.0000000000000000E+01
     &END MGRID
     &XC
       DENSITY_CUTOFF     1.0000000000000000E-10
       GRADIENT_CUTOFF     1.0000000000000000E-10
       TAU_CUTOFF     1.0000000000000000E-10
       &XC_GRID
         XC_SMOOTH_RHO  NN10
         XC_DERIV  NN10_SMOOTH
       &END XC_GRID
       &XC_FUNCTIONAL  NO_SHORTCUT
         &PBE  T
         &END PBE
       &END XC_FUNCTIONAL
       &VDW_POTENTIAL
         POTENTIAL_TYPE  PAIR_POTENTIAL
         &PAIR_POTENTIAL
           R_CUTOFF     1.0000000000000002E+01
           TYPE  DFTD3
           PARAMETER_FILE_NAME dftd3.dat
           REFERENCE_FUNCTIONAL PBE
         &END PAIR_POTENTIAL
       &END VDW_POTENTIAL
     &END XC
     &PRINT
       &MULLIKEN  SILENT
         FILENAME =CHARGE.mulliken
         &EACH
           MD  5
         &END EACH
       &END MULLIKEN
     &END PRINT
   &END DFT
   &SUBSYS
     &CELL
       A     1.0223900000000002E+01    0.0000000000000000E+00    0.0000000000000000E+00
       B     0.0000000000000000E+00    1.0223900000000002E+01    0.0000000000000000E+00
       C     0.0000000000000000E+00    0.0000000000000000E+00    2.6422000000000001E+01
       PERIODIC  XYZ
       MULTIPLE_UNIT_CELL  1 1 1
     &END CELL
     &COORD
Cu    7.0686338855079778E-01    9.5633640124386243E+00    3.3993366487389703E-01
Cu    3.1523197484629462E+00    1.9719516810446185E+00    3.3891758614968537E-01
Cu    5.6365870886919500E-01    9.5222595305009516E+00    3.9975553376197519E+00
Cu    3.0907806020666673E+00    2.0707122731874148E+00    3.9957430992492431E+00
Cu    3.1192792460847545E+00    9.6969367113317091E+00    4.4097001521726942E-01
Cu    5.6607090842371355E-01    1.8356111988684345E+00    4.2801646653448516E-01
Cu    3.1887357060240058E+00    9.5429397093923054E+00    4.0576953257138682E+00
Cu    4.3844337704367015E-01    1.8725748854640165E+00    4.1232324675530059E+00
Cu    4.2859551297779648E+00    5.8824660172442800E-01    2.4829150057676234E+01
Cu    1.6074815479213194E+00    3.2459312484042684E+00    2.5098986214601410E+01
Cu    4.3670651575652553E+00    6.9568572794576289E-01    2.1625914501203201E+00
Cu    1.8375702130107483E+00    3.2748911902503397E+00    2.1759220653092561E+00
Cu    1.7198581704355222E+00    7.8624828508531441E-01    2.4913599888805926E+01
Ag    4.4826911610216804E+00    3.4244064368744782E+00    2.4766241186506409E+01
Cu    1.8823900508432752E+00    7.5936580514280116E-01    2.3544348506942110E+00
Cu    4.3084130292409419E+00    3.3834680038717710E+00    2.2318148069462351E+00
Cu    5.6181185275349774E+00    9.5949224078863065E+00    4.0431288287433481E-01
Cu    8.2060999847045206E+00    1.7584972976285951E+00    2.9289637330073343E-01
Cu    5.6038787005242439E+00    9.7848511710257391E+00    4.0009176505852864E+00
Cu    8.2410020061657789E+00    2.1427491000707004E+00    4.0127818945940019E+00
Cu    8.2085765366646442E+00    9.6664376777433052E+00    4.4623382711498222E-01
Cu    5.6080142415002889E+00    1.9005113579428714E+00    3.0683897387265446E-01
Cu    8.2265484779139513E+00    9.5534726635091385E+00    4.0301556892762020E+00
Cu    5.6058152962555070E+00    1.9970502048565715E+00    3.9441424483675531E+00
Cu    9.4127650773701905E+00    6.0070510337200345E-01    2.4885657538441901E+01
Cu    6.9699254854389778E+00    3.2269481107049423E+00    2.5042826105418651E+01
Cu    9.4687220513775952E+00    6.2323205120731995E-01    2.2258329964813495E+00
Cu    6.8996135815519573E+00    3.2639511427274677E+00    2.2480709021139744E+00
Cu    6.8835164885982616E+00    6.3614938821319422E-01    2.5007449074389623E+01
Cu    9.4046135013491980E+00    3.2752622170794132E+00    2.5066615173651744E+01
Cu    6.8874403710274379E+00    7.4239342505680705E-01    2.1971259964481291E+00
Cu    9.4094172728355900E+00    3.1491037538868607E+00    2.1249494088957097E+00
Cu    4.9596229694542160E-01    4.5006225716877761E+00    4.3968848223079626E-01
Cu    2.9891999932950086E+00    7.2714492614495922E+00    2.8544173598664607E-01
Cu    4.9814893535400878E-01    4.5374012677992681E+00    3.8102294066416476E+00
Cu    3.0360048555442933E+00    7.1296853679624324E+00    4.0255125762260473E+00
Cu    3.0374671479362441E+00    4.5757231672254122E+00    3.2997315969158864E-01
Cu    4.7953888103816805E-01    7.0288305527347728E+00    4.1367924503874770E-01
Cu    2.9110295103616681E+00    4.6563875846300675E+00    3.9544014931863858E+00
Cu    5.7217530387163040E-01    7.0518550037251835E+00    3.8665877603356726E+00
Cu    4.3628224140543646E+00    6.0730046413689145E+00    2.5008194077604447E+01
Cu    1.7241902092604311E+00    8.4982716612596274E+00    2.4811453869103886E+01
Cu    4.3005758491528665E+00    5.9198952978310855E+00    2.2944081929113036E+00
Cu    1.7080381237804949E+00    8.3928982446853198E+00    2.1935433586384665E+00
Cu    1.8525614329656683E+00    5.8393855598859332E+00    2.4944048866807531E+01
Cu    4.4112623798298340E+00    8.4010736017439918E+00    2.5073094572036794E+01
Cu    1.7429402787377359E+00    5.8539572495812457E+00    2.0965394895675131E+00
Cu    4.2509435963092903E+00    8.3583997872405522E+00    2.3406886452805464E+00
Cu    5.5717372809201242E+00    4.6375334648506632E+00    3.5912298471867371E-01
Cu    8.0769761238203266E+00    7.0613959105602877E+00    4.8793526606742854E-01
Ag    5.5601550664181056E+00    4.5705628983142024E+00    4.4713042080321186E+00
Cu    8.2843324187111982E+00    7.0221677198890182E+00    3.9209039651687854E+00
Cu    8.2478347242793930E+00    4.3399439223054630E+00    4.1719943242831148E-01
Cu    5.5251115419767558E+00    7.0848067217133046E+00    5.1883249343789462E-01
Cu    8.3892737835568827E+00    4.5910772845503436E+00    3.9917213495249926E+00
Cu    5.5787154495151912E+00    7.2598136973173197E+00    4.0704845358210724E+00
Cu    9.4067536377440160E+00    5.8106010102805525E+00    2.5256723414593171E+01
Cu    6.9635343220458159E+00    8.3065151333252700E+00    2.5142354955026530E+01
Cu    9.4224614003691798E+00    5.7244020581157109E+00    2.0788450979389537E+00
Cu    6.8137279205687777E+00    8.3622492993598829E+00    2.2482200606992375E+00
Cu    6.9208147673309037E+00    5.8154827632892934E+00    2.5138330011981473E+01
Cu    9.4984913588345421E+00    8.3901752460562786E+00    2.5092878896517952E+01
Cu    6.8989949249109976E+00    5.7517650182208397E+00    2.3003704396729949E+00
Cu    9.5071630857429081E+00    8.4220075014750826E+00    2.2090795702669372E+00
O    8.2640405768501313E-01    1.7799811637651903E+00    6.9606959119481662E+00
H    1.0377384026917932E+01    2.5495771380858150E+00    6.9410097536845816E+00
H    1.7086149971215889E+00    2.1539219703318970E+00    6.7080683435504609E+00
O    6.4491462410489833E+00    1.1068883832230245E+01    7.5199165300380528E+00
H    6.3603402656327646E+00    9.1184637131690194E-01    8.5724327188917187E+00
H    5.8361518000155792E+00    1.5012919534066882E+00    7.1918130459603997E+00
O    2.6261910457593602E+00    1.6046560208200455E+00    1.7763452944970140E+01
H    1.9900025837493964E+00    2.0086564661424258E+00    1.8418967218732934E+01
H    2.7729474514724082E+00    1.0916872330260862E+01    1.8172959056314191E+01
O    2.7736313505042816E+00    5.5515646533565279E+00    8.4765696424664050E+00
H    3.3501989525529754E+00    4.9040240054230546E+00    7.9796465283275966E+00
H    2.1597885937851808E+00    5.9604405793740041E+00    7.8091023780300350E+00
O    1.1620450508767055E+00    6.4962702430385644E+00    6.6916771770369676E+00
H    8.4293996380423997E-01    7.4122382022418156E+00    6.5370079432994386E+00
H    1.3765823799300032E+00    6.2114410652054604E+00    5.7822876553594291E+00
O    1.8383488732203546E+00    5.1827482558315676E+00    1.2744954990069928E+01
H    2.0182921735651447E+00    4.4979338807636280E+00    1.2005827137469545E+01
H    2.1354366381313072E+00    4.6441339958204937E+00    1.3548942139841726E+01
O    4.9024343049145458E-01    7.9828409611159126E+00    1.8210711972105571E+01
H    4.0264442954949670E-01    7.5764116679598601E+00    1.7332514924520098E+01
H    1.2737651668359060E+00    8.5357098840909238E+00    1.8290373429628325E+01
O    7.6063646004611583E+00    2.5064501879026779E+00    2.2013902941042250E+01
H    7.1896259806453413E+00    1.1856161391165090E+01    2.1715382123720872E+01
H    7.2704491809005747E+00    2.5621858485552353E+00    2.2952496312746380E+01
O    7.0029441233894092E+00    6.4726466477128115E+00    1.8938416172684690E+01
H    7.6238867319803996E+00    7.1908843107427902E+00    1.8793895901140157E+01
H    6.0399927158276041E+00    6.6777885422327090E+00    1.8863248911104208E+01
O    1.2632150577103829E+00    8.7084622830453586E+00    1.3345150843149890E+01
H    4.8293654763718236E-01    8.1300062796492902E+00    1.3274399532175416E+01
H    9.3398565426921221E-01    9.6074128433462853E+00    1.3625185796297949E+01
O    7.9462018804978340E+00    4.5989668777759656E+00    1.7276641042783794E+01
H    7.1457559698127930E+00    4.3683706990795388E+00    1.6720810193151110E+01
H    7.5382564273987578E+00    5.3859396366081862E+00    1.7840007911109478E+01
O    1.0240604982287952E+01    1.2532343249436742E+01    2.1902202015686438E+01
H    3.2748864861160593E-01    1.2595434951334866E+01    2.2792019385064869E+01
H    9.2763122094663917E+00    2.4193928401403535E+00    2.2085424533074281E+01
O    4.0537182534790990E+00    6.8282091376877503E+00    1.8814866254066619E+01
H    3.2165686663799899E+00    6.5752828665811647E+00    1.9267043583813102E+01
H    4.0195192309942813E+00    6.4379814234798776E+00    1.7868833148997474E+01
O    4.3552554343174394E+00    6.2765039390684390E+00    1.2780858161468657E+01
H    3.3713412555286997E+00    5.9957055717227883E+00    1.2839158234621600E+01
H    4.4624162345724701E+00    7.1954261249421290E+00    1.3234650611571537E+01
O    2.2157228656007502E+00    7.9090592984125543E+00    1.5798504254158191E+01
H    1.9633180411795537E+00    8.2570849083441438E+00    1.4920718822100689E+01
H    2.8737657230603761E+00    8.5867808552149860E+00    1.6123480832274250E+01
O    6.2273702333536747E+00    4.8304206687814482E+00    1.1909998911995029E+01
H    5.5828736258161458E+00    5.2354109255039267E+00    1.2518161897083708E+01
H    6.8501986747617298E+00    4.2826469687559188E+00    1.2438452251228057E+01
O    6.1801128700468890E+00    1.0153401389740143E+01    1.8168718798632067E+01
H    5.9438740075334549E+00    1.1102988877615896E+01    1.8176282784838893E+01
H    6.9662247952848322E+00    1.0073387738046994E+01    1.7638872036889207E+01
O    2.1751596893541016E+00    9.0770710451407126E+00    1.0913998213253331E+01
H    2.8640949996446023E+00    8.3877559917415212E+00    1.0610162382894648E+01
H    1.8566817822351813E+00    8.8470458477049974E+00    1.1834481363700370E+01
C    5.3852616861615221E+00    4.5532167883931312E+00    6.5227321751527008E+00
O    4.0191502281194342E+00    1.5224935839282177E+00    1.4189634747074852E+01
H    5.0258164478132237E+00    1.5807727997548393E+00    1.4297612148435904E+01
H    3.8932357259317323E+00    1.4679263961727989E+00    1.3185254733770092E+01
O    8.8323667060407036E+00    1.0224596738511092E+01    1.1181582368498869E+01
H    8.4913653632098889E+00    9.8209670252391490E+00    1.2113537921277032E+01
H    9.6171299139389195E+00    4.7367896029338519E-01    1.1519705288399201E+01
O    2.9254895555380647E+00    3.3612601539980513E+00    2.1711101635699418E+01
H    2.6980702374150987E+00    3.7089069855989960E+00    2.2562528581383930E+01
H    2.1123480652751425E+00    3.4764246159141523E+00    2.1100526161801369E+01
O    9.6639735065225985E+00    8.1250111752588907E+00    2.2013975142628318E+01
H    9.2135045234598856E+00    8.6088052851694812E+00    2.2760020651248986E+01
H    9.0638214423865815E+00    8.4200428901102065E+00    2.1228913442040199E+01
O   -3.7725893735963918E-02    2.7284405844104405E+00    1.4686045377964284E+01
H    7.6389309517522286E-01    3.3356565389957948E+00    1.4851020965431710E+01
H   -5.9218702053828932E-02    2.2218045712715546E+00    1.5492847939117903E+01
O    8.1591044456940889E+00    6.6824560834963593E+00    1.1092876279584029E+01
H    7.4568509840236219E+00    6.0490580494868338E+00    1.1308862750523669E+01
H    7.6034651996984453E+00    7.2933741856192142E+00    1.0646247149250577E+01
O    2.5995034481780670E+00    3.6446039786063480E+00    1.4953047375665951E+01
H    2.7391896018754101E+00    4.3415372373775414E+00    1.5618684141490075E+01
H    3.3142398114962193E+00    2.9460961105265944E+00    1.4849157224573368E+01
O    3.5304499795930067E+00    6.8080625458342450E+00    2.1966835657222394E+01
H    3.3000975631774261E+00    6.3783028627172014E+00    2.2862902953505241E+01
H    4.4579593452633617E+00    7.2793437390699784E+00    2.2113499500864336E+01
O    1.7453519237660733E+00    6.0247521537666637E+00    1.9682140607904060E+01
H    1.5042044284361615E+00    6.1515151643156720E+00    2.0613778603451475E+01
H    1.0583977552668680E+00    6.6837256141746328E+00    1.9264560921898052E+01
O    4.4594711245578438E+00    1.0485845961067374E+01    1.1796193655912459E+01
H    5.1118590424600390E+00    4.1885121729552838E-01    1.1092347395046382E+01
H    3.7356226312693059E+00    1.0011742536613266E+01    1.1396907990585611E+01
O    5.1355040830657099E+00    2.5314210351618982E+00    1.8349950189289054E+01
H    4.1597592266090864E+00    2.3623024864822932E+00    1.8134697792413711E+01
H    5.1697546560030965E+00    3.2939978602250886E+00    1.9020602337388375E+01
O    3.5791002954452726E+00    9.5758343048629087E+00    6.1812614251046369E+00
H    2.8829752704301321E+00    9.1323840588845897E+00    6.7076328568648531E+00
H    4.3670907605887974E+00    8.9726103808672324E+00    6.3066428911454722E+00
O    6.8665759592033035E+00    1.5559105559377531E+00    1.4464744458497067E+01
H    7.2515767330010332E+00    1.9336186986582984E+00    1.3690314359661393E+01
H    7.2350685962104402E+00    6.2210110759492065E-01    1.4434908971561727E+01
O    6.5259690715061165E+00    1.0647375997732467E+00    1.0088037666983242E+01
H    7.4328985616482610E+00    1.1256651443361813E+01    1.0468542536517788E+01
H    6.1451051090597852E+00    1.9255464191833476E+00    1.0254709191220369E+01
O    7.9823856535048545E+00    9.3427015808082174E+00    1.3426709621712478E+01
H    7.1444318531527058E+00    8.7610678915072793E+00    1.3432883243666275E+01
H    8.3429717323944512E+00    9.1635724080516265E+00    1.4386715712862616E+01
O    5.5801674183857850E+00    7.8624664313671193E+00    6.3453118955186634E+00
H    6.4799288077582142E+00    8.1934665890765643E+00    6.3235191232810744E+00
H    5.6207994402444159E+00    6.7360416468747903E+00    6.7294788285750720E+00
O    1.0056367565663882E+01    5.1672797843961247E+00    9.5020118495292909E+00
H    7.8413238955129394E-01    5.4756877979690177E+00    9.6027797448994097E+00
H    9.5907312498131123E+00    5.7871299784386432E+00    1.0114481312057022E+01
O    6.2067644498304393E+00    1.0531896019447338E+01    2.1365972187495441E+01
H    6.2754244865888626E+00    1.0284107384824859E+01    2.0410117208415539E+01
H    5.2211123900319851E+00    1.0760033960944664E+01    2.1488697844396349E+01
O    1.2827595033822412E-01    1.1117955530038049E+01    1.6880424459356561E+01
H    1.0812825817490572E+00    1.1269333581999634E+01    1.7027288969687717E+01
H   -2.8992454080975072E-01    1.0985171428009862E+01    1.7752664296071956E+01
O    8.2002255758527447E+00    2.9256030384470888E+00    1.9235296019503345E+01
H    7.6011715092645202E+00    3.0051198887920769E+00    2.0010718755234461E+01
H    7.9876958247940868E+00    3.5095679800307926E+00    1.8461449490585366E+01
O    9.0308623895604008E+00    2.8136116347352647E+00    1.0144809222187950E+01
H    9.7735367126087915E+00    2.1652786861864439E+00    1.0204699097401962E+01
H    9.4204319590058301E+00    3.6126509590052480E+00    9.7886510544514795E+00
O    2.2450573550863678E-01    5.6752863689462973E+00    2.2049104952058880E+01
H    6.5969745242481659E-01    5.0272713808878411E+00    2.2656226406384921E+01
H   -4.2169098093192539E-02    6.3622420931165902E+00    2.2697491531043486E+01
O    3.9915526489460595E+00    7.2937927600365340E+00    1.0135132644475462E+01
H    3.4579325833444630E+00    6.7622407971285545E+00    9.5468790348558841E+00
H    4.2951274802090929E+00    6.7275259398584115E+00    1.0863506192519974E+01
O    6.5174680021214808E+00    8.1814984764308925E+00    9.3664210451751817E+00
H    5.5269325860262839E+00    7.8670208453091863E+00    9.4891481343031856E+00
H    6.3904156562481731E+00    8.7250376956440885E+00    8.6010511002029748E+00
O    8.1762655291803199E+00    3.2265991986346969E+00    1.2781289247082405E+01
H    8.6627368883508176E+00    3.0590883302931999E+00    1.1949584772233314E+01
H    8.8358811721598958E+00    3.3400929720936179E+00    1.3458772563529440E+01
O    5.8371210669955484E+00    3.4603536554066427E+00    1.5901077446070378E+01
H    6.3508105721708139E+00    2.6731989775178926E+00    1.5575959700137870E+01
H    5.5855542843140720E+00    3.1145420442757388E+00    1.6821901489783627E+01
O    3.8632619756849609E+00    5.9431195113186073E+00    1.6081817467608218E+01
H    4.6149359827959575E+00    5.4963973756879048E+00    1.5583488782609630E+01
H    3.3821252410613214E+00    6.7621000241389639E+00    1.5742851789971692E+01
O    9.3363891558723644E+00    1.1019903055925857E+01    1.9465708458447384E+01
H    8.9107030069115805E+00    1.7717844432360095E+00    1.9467843753718608E+01
H    9.8468356525132705E+00    1.0917149347052623E+01    2.0254888205621565E+01
O    6.0188873240772871E+00    7.8760305442357534E+00    2.2141780526275866E+01
H    6.1367824241837265E+00    8.8236117230440136E+00    2.1893168578373622E+01
H    6.0889352165999577E+00    7.9348191455359469E+00    2.3109775534393165E+01
O   -3.0196812437522141E-01    8.2873466049156530E+00    9.4624259148749950E+00
H    6.5708814499451473E-01    8.2044256316751607E+00    9.7001227584569438E+00
H    9.5247527868762720E+00    8.9073818268757350E+00    1.0085981440905897E+01
O    9.7673581315056630E+00    6.6905886878392806E+00    1.6017764775913253E+01
H    9.7496739637276075E+00    6.5655353991768441E+00    1.5028883977512839E+01
H    9.1897889453477717E+00    6.0490590871994065E+00    1.6532683327122509E+01
O    2.4257107882255564E+00    3.1389591257909917E+00    1.1222971093991974E+01
H    1.8860486611773397E+00    2.6256477995824397E+00    1.0513155132131256E+01
H    3.3060445601241639E+00    3.2172520060509795E+00    1.0769629224126151E+01
O    8.8458579670449904E+00    3.3198069396942551E+00    7.0245766744938134E+00
H    8.5472711284033949E+00    3.2225346774570811E+00    6.0610084729444234E+00
H    8.3351130044003945E+00    2.5381702938497890E+00    7.3899652379827980E+00
O    8.4315551084351927E+00    8.6100334596120760E+00    1.9494962375982492E+01
H    9.3518154794472839E+00    8.3606138995850401E+00    1.9110609459002546E+01
H    8.5118226056220312E+00    9.6247857422464307E+00    1.9444807304013633E+01
O    1.2870151949958948E+00    3.2183029919314436E+00    1.9576423988781322E+01
H    1.2478523508071306E+00    4.1261796752451430E+00    1.9261240541897561E+01
H    4.5622522383171266E-01    3.0632398141125314E+00    2.0112010075060574E+01
O    4.9694090870454399E+00    3.3789881119713288E+00    1.0237304315750281E+01
H    5.1953578253329411E+00    3.8457833573158298E+00    9.4139387026296024E+00
H    5.4762697603264492E+00    4.0061816282708493E+00    1.0824135498322327E+01
O    3.2510487665708934E+00    2.0576582067335702E+00    6.1311652792775853E+00
H    4.2080337468595514E+00    2.7646601756003153E+00    6.6790672268209512E+00
H    3.4958294216580428E+00    1.0884980547802685E+00    6.2140553674341357E+00
O    3.7089791001934214E+00    1.0986289228480741E+01    2.2437125491523723E+01
H    3.3346940656993493E+00    1.1927145492135601E+01    2.2161484421875485E+01
H    2.9811699211476999E+00    1.0373061590834974E+01    2.2251523150025474E+01
O    5.1233308633168662E+00    8.6050625541228420E+00    1.3641574790952268E+01
H    4.8593564963143718E+00    8.8795406180280398E+00    1.4529528500084790E+01
H    4.8726735402609416E+00    9.3301683267570130E+00    1.3044435227561914E+01
K    8.5229140138997703E+00    5.9098641364615538E+00    7.5196047607886429E+00
O    5.9310691299725238E-01    1.2608024005525806E+00    1.2687219625558402E+01
H    4.3383404561535160E-01    1.7547648662453528E+00    1.3562656173114476E+01
H    1.5466112645479906E+00    1.3787688206658859E+00    1.2485804777802315E+01
O    8.6810930147489334E+00    9.1676833626633396E+00    1.5915591485043558E+01
H    9.4078817347755361E+00    9.7342956857914995E+00    1.6182761011784276E+01
H    9.0472941574218400E+00    8.2687755588242702E+00    1.5981111212754744E+01
O    2.0813571092028269E+00    8.9022713592705429E+00    2.1502389561063563E+01
H    1.1738672590324568E+00    8.6740763343724314E+00    2.1886478356193830E+01
H    2.6480712516981488E+00    8.0715811289559269E+00    2.1813651171737266E+01
O    4.4291786713639008E+00    9.6176708137898430E+00    1.6014825812803469E+01
H    4.2669255314548193E+00    1.0506540614766854E+01    1.5634053502268157E+01
H    4.8825570416505499E+00    9.8582310410466398E+00    1.6940231838477150E+01
O    1.1106845750255567E+00    1.1890996792025799E+00    9.6185692345009794E+00
H    1.1333300361227834E+00    1.2158219650088771E+00    8.6863417423650766E+00
H    1.4317560529540672E+00    1.0563295191712763E+01    9.9946983328179630E+00
O    9.5713903867756986E+00    6.7659742130674756E+00    1.3294098551723049E+01
H    6.6193815139644957E-03    6.0760575600408817E+00    1.3032141192731340E+01
H    8.9224327075242993E+00    6.8795703901257603E+00    1.2497462986747454E+01
O    8.6795286837954788E-01    9.3769253181980439E+00    7.2806490858638231E+00
H    8.1047517339399777E-01    1.8845199626293269E-01    7.0579078800228121E+00
H    2.5900950528922273E-01    9.2719262547961048E+00    8.0798190197772595E+00
O    8.4393739239247410E+00    9.5251756487903574E+00    6.2367119474861257E+00
H    7.7777194229699180E+00    1.0141940335363714E+01    6.7399533570864687E+00
H    9.2919780265008516E+00    9.4101005377753548E+00    6.6433185880149095E+00
O    2.9265004107677015E+00    9.3053410761836979E+00    1.8831608869037634E+01
H    3.4992666126478418E+00    8.5438216392842623E+00    1.8614006561297032E+01
H    2.7147915751014398E+00    9.1143648468355423E+00    1.9873498844304788E+01
K    7.3533969579083545E+00    5.3864556342976622E+00    2.2004464085603697E+01
O    4.9539660015866138E+00    4.3275525124248038E+00    2.0327129360916764E+01
H    4.7206341869690034E+00    5.2018242239061863E+00    2.0026183377428968E+01
H    4.1625915279336052E+00    4.0706382700180068E+00    2.0896659786150487E+01
O    5.7775297840058268E+00    5.5172781232854398E+00    7.2918495632430904E+00
O    4.9520638260374401E+00    3.5052486925691624E+00    7.2392804045196115E+00
     &END COORD
     &VELOCITY
          -4.5809702953087213E-05    2.5113758714911220E-06   -3.2752894728325013E-05
           7.5373768549157461E-06   -1.1600336996828869E-05   -2.5086912459221878E-05
          -1.3303409989918934E-04   -8.1812856272153966E-05    8.9793179401293719E-05
          -3.3056934836602656E-05   -9.1567164046813134E-05    9.5357267450120524E-05
          -3.3208406826806493E-05   -2.4168293965205273E-05   -1.2066857974838567E-04
           3.2696062718089009E-05    4.4304814748535099E-05    1.3549948954414638E-04
           3.1874000811477852E-05    1.3741897311767835E-05    9.2544582012891630E-05
          -4.8586182334957395E-06   -3.2898262600597804E-05   -1.4626347350125845E-05
          -4.0305233973378061E-05    2.2982671059292248E-04   -1.0232111343583310E-04
          -6.2169623011426595E-05    8.6550272963138857E-05   -3.9354444506460453E-06
           1.3404147997423928E-04    2.5292413329085325E-05   -9.1172345238652676E-05
          -1.3383352062688967E-04   -9.0291044295052184E-05    8.1974119729948668E-06
          -8.1324129298574095E-05   -2.9870062630130002E-05   -3.4258876526892697E-05
          -1.2009191492748035E-04    4.0880766235078623E-05    5.7103837301577646E-05
          -2.4524896772096510E-05   -1.2568170798634178E-05   -4.3808529485848176E-05
          -6.9122724486342466E-05   -5.8683821169518850E-06    1.0560469262441700E-05
          -4.2795419884123116E-05   -2.2031671575779948E-05    3.2940498202028446E-05
          -3.2343475321449177E-06   -3.0346711359204168E-05    1.6543591483347690E-05
           5.3140277007907426E-05   -8.3041741073256302E-05    5.2696400792960023E-05
           3.7273316066676223E-05    9.7104517409754985E-05   -5.4732256943802983E-05
           8.1004470854059327E-05   -1.4483865318821887E-04    3.9983346204813434E-05
          -4.6459711144924430E-06    2.9978190475988918E-05    1.1686768535364897E-04
          -3.1464029277700655E-05   -8.9326414171696866E-06    2.3437786223932274E-04
           3.1903461680822251E-05   -1.4692044413946378E-05   -4.7894200074892132E-05
          -5.6873534638226234E-06   -1.1376488688108014E-05   -1.1812659052402612E-04
          -7.5329388142323995E-06   -1.0080202817368489E-04   -6.3126889350668215E-06
           1.2356840120587406E-04   -8.1942000154328572E-05    8.3603870871759329E-06
          -7.9996107772570644E-06   -5.2253452726333848E-05   -5.7383380649444296E-06
           5.6330011147389887E-05   -3.9065168042311080E-06   -8.1597252415865280E-05
           7.0712294053096417E-05    3.0827775238632554E-05    2.3607958550222638E-05
          -3.4812875110358261E-05    8.0159491985492740E-05    4.2610534108553995E-05
           1.3795746776640617E-04   -3.8078443433594542E-05   -1.4378991984311324E-05