 # Version information for this restart file 
 # current date 2026-02-25 03:15:01.544
 # current working dir /home/shaofl/projects/03_CuAg_SAA/explicit/1K/co2_to_cooh/from_ad_h2o/sg2
 # Program compiled at                              Wed Jun 16 17:08:34 CST 2021
 # Program compiled on                                                       mgr
 # Program compiled for                                       Linux-x86-64-intel
 # Source code revision number                                       git:e635599
 &GLOBAL
   PRINT_LEVEL  LOW
   PROJECT_NAME slowgrowth
   RUN_TYPE  MD
 &END GLOBAL
 &MOTION
   &MD
     ENSEMBLE  NVT
     STEPS  8000
     TIMESTEP     9.9999999999999989E-01
     STEP_START_VAL  1500
     TIME_START_VAL     1.5000000000000152E+03
     ECONS_START_VAL    -4.3014588840744354E+03
     TEMPERATURE     3.0014999999999998E+02
     &THERMOSTAT
       TYPE  NOSE
       REGION  GLOBAL
       &NOSE
         LENGTH  3
         TIMECON     2.2237606346543473E+01
         &COORD
               8.0630937837880029E-02    8.6133215851725691E+00   -7.1051796617267937E-01
         &END COORD
         &VELOCITY
              -5.1620128839654417E-05   -1.0972459219258193E-03   -5.3615738266896216E-04
         &END VELOCITY
         &MASS
               6.4750332819943212E+05    8.0335400521021347E+02    8.0335400521021347E+02
         &END MASS
         &FORCE
               5.1720846386735631E-08    9.6450898334229397E-07    2.0759609178582236E-08
         &END FORCE
       &END NOSE
     &END THERMOSTAT
     &AVERAGES  T
       &RESTART_AVERAGES
         ITIMES_START  1
         AVECPU     1.8263658325013967E+01
         AVEHUGONIOT     0.0000000000000000E+00
         AVETEMP_BARO     0.0000000000000000E+00
         AVEPOT    -4.3018804650816974E+03
         AVEKIN     3.8296781531289947E-01
         AVETEMP     3.0007823086498888E+02
         AVEKIN_QM     0.0000000000000000E+00
         AVETEMP_QM     0.0000000000000000E+00
         AVEVOL     1.8637835790266097E+04
         AVECELL_A     1.9320371010009548E+01
         AVECELL_B     1.9320371010009548E+01
         AVECELL_C     4.9930343883104669E+01
         AVEALPHA     9.0000000000000000E+01
         AVEBETA     9.0000000000000000E+01
         AVEGAMMA     9.0000000000000000E+01
         AVE_ECONS     2.6632604026793025E+01
         AVE_PRESS     0.0000000000000000E+00
         AVE_PXX     0.0000000000000000E+00
       &END RESTART_AVERAGES
     &END AVERAGES
     &PRINT
       &ENERGY  SILENT
       &END ENERGY
     &END PRINT
   &END MD
   &CONSTRAINT
     &COLLECTIVE
       COLVAR  1
       INTERMOLECULAR  T
       TARGET     5.2912331720805117E-01
       TARGET_GROWTH    -9.1420578484471594E-06
     &END COLLECTIVE
     &LAGRANGE_MULTIPLIERS  SILENT
       COMMON_ITERATION_LEVELS  1
       FILENAME constraint_force.dat
     &END LAGRANGE_MULTIPLIERS
   &END CONSTRAINT
   &PRINT
     &TRAJECTORY  SILENT
       &EACH
         MD  5
       &END EACH
     &END TRAJECTORY
     &VELOCITIES  SILENT
       &EACH
         MD  5
       &END EACH
     &END VELOCITIES
     &RESTART  SILENT
       &EACH
         MD  10
       &END EACH
     &END RESTART
   &END PRINT
 &END MOTION
 &FORCE_EVAL
   METHOD  QS
   &DFT
     BASIS_SET_FILE_NAME BASIS_MOLOPT
     POTENTIAL_FILE_NAME GTH_POTENTIALS
     WFN_RESTART_FILE_NAME ./1-RESTART.wfn
     UKS  T
     CHARGE  0
     &SCF
       MAX_SCF  60
       EPS_SCF     1.0000000000000001E-05
       SCF_GUESS  ATOMIC
       &OT  T
         MINIMIZER  BROYDEN
         BROYDEN_BETA     9.0000000000000002E-01
         BROYDEN_SIGMA     1.0000000000000001E-01
         LINESEARCH  2PNT
         PRECONDITIONER  FULL_ALL
       &END OT
       &OUTER_SCF  T
         EPS_SCF     1.0000000000000001E-05
         MAX_SCF  50
       &END OUTER_SCF
       &PRINT
         &RESTART_HISTORY  SILENT
           ADD_LAST  NUMERIC
           FILENAME = MD_RESTART_HISTORY.wfn
           BACKUP_COPIES  5
           &EACH
           &END EACH
         &END RESTART_HISTORY
       &END PRINT
     &END SCF
     &QS
       EPS_DEFAULT     9.9999999999999998E-13
       EPS_PGF_ORB     9.9999999999999995E-07
       EXTRAPOLATION  ASPC
       EXTRAPOLATION_ORDER  2
     &END QS
     &MGRID
       NGRIDS  5
       CUTOFF     4.5000000000000000E+02
       REL_CUTOFF     6.0000000000000000E+01
     &END MGRID
     &XC
       DENSITY_CUTOFF     1.0000000000000000E-10
       GRADIENT_CUTOFF     1.0000000000000000E-10
       TAU_CUTOFF     1.0000000000000000E-10
       &XC_GRID
         XC_SMOOTH_RHO  NN10
         XC_DERIV  NN10_SMOOTH
       &END XC_GRID
       &XC_FUNCTIONAL  NO_SHORTCUT
         &PBE  T
         &END PBE
       &END XC_FUNCTIONAL
       &VDW_POTENTIAL
         POTENTIAL_TYPE  PAIR_POTENTIAL
         &PAIR_POTENTIAL
           R_CUTOFF     1.0000000000000002E+01
           TYPE  DFTD3
           PARAMETER_FILE_NAME dftd3.dat
           REFERENCE_FUNCTIONAL PBE
         &END PAIR_POTENTIAL
       &END VDW_POTENTIAL
     &END XC
     &PRINT
       &MULLIKEN  SILENT
         FILENAME =CHARGE.mulliken
         &EACH
           MD  5
         &END EACH
       &END MULLIKEN
     &END PRINT
   &END DFT
   &SUBSYS
     &CELL
       A     1.0223900000000002E+01    0.0000000000000000E+00    0.0000000000000000E+00
       B     0.0000000000000000E+00    1.0223900000000002E+01    0.0000000000000000E+00
       C     0.0000000000000000E+00    0.0000000000000000E+00    2.6422000000000001E+01
       PERIODIC  XYZ
       MULTIPLE_UNIT_CELL  1 1 1
     &END CELL
     &COORD
Cu    5.1657283149252997E-01    9.9568378028532258E+00    4.8505327828990846E-01
Cu    2.9530308381075474E+00    2.3810914752185175E+00    3.9338070586407259E-01
Cu    6.6943577422202305E-01    9.9788435515965332E+00    4.0323401572961570E+00
Cu    3.2122432241054542E+00    2.2823249272176640E+00    4.1245094297120248E+00
Cu    3.0049286785223965E+00    9.9809711878059844E+00    4.0418071905188518E-01
Cu    4.1963163367957940E-01    2.2501314419215497E+00    5.4941285167263221E-01
Cu    3.1581589915967467E+00    9.9839013789959914E+00    4.0494963186317658E+00
Cu    5.9528733855605354E-01    2.3154036068598005E+00    4.0638957682456098E+00
Cu    4.3565132009136764E+00    9.6394663231728939E-01    2.5216210913027865E+01
Cu    1.7417178633474049E+00    3.5800054977672873E+00    2.5076725554984453E+01
Cu    4.3595451577187845E+00    1.0026075004124186E+00    2.1125866484431044E+00
Cu    1.8586194825025970E+00    3.5765879190109682E+00    2.2825453311344885E+00
Cu    1.6905051199056724E+00    1.0438312466046185E+00    2.5147896989516255E+01
Ag    4.4519223137016573E+00    3.5282518694639147E+00    2.4927594730101134E+01
Cu    1.9534150344659804E+00    1.0833559527705707E+00    2.4101009918614653E+00
Cu    4.3588474363091176E+00    3.6151625318050145E+00    2.3508081484127712E+00
Cu    5.5458692845195676E+00    9.8698860356713976E+00    4.6211994966400127E-01
Cu    8.2217191243468886E+00    2.1783132404865078E+00    4.2367991915016567E-01
Cu    5.4155881488871129E+00    1.0001538497982089E+01    3.9321760976924631E+00
Cu    8.2210345961052766E+00    2.2944732267985368E+00    4.0176362401958752E+00
Cu    8.2260909238022553E+00    9.8771380699593259E+00    4.5879973117106487E-01
Cu    5.7806645416126647E+00    2.2422892989144114E+00    3.9796364422943320E-01
Cu    8.2927627733822433E+00    1.0010790190126842E+01    4.0948391953462941E+00
Cu    5.7041709399427711E+00    2.1699948789713508E+00    3.8584834153397880E+00
Cu    9.4155400685800448E+00    9.7006120648745064E-01    2.5113780340300647E+01
Cu    7.0902919733620902E+00    3.6150491134055538E+00    2.4999558282308957E+01
Cu    9.5311429903298812E+00    9.3462697077993639E-01    2.3278756661442865E+00
Cu    6.8676895586325868E+00    3.5639013162225566E+00    2.3177104607426307E+00
Cu    6.9477268640243670E+00    9.6992377785473882E-01    2.5204064214817979E+01
Cu    9.4777821804751383E+00    3.4453593562675922E+00    2.5207640243822393E+01
Cu    7.0338568531962498E+00    1.0159916993499736E+00    2.2241641633484686E+00
Cu    9.6024562929027404E+00    3.6036348539218332E+00    2.3489988671641866E+00
Cu    4.9059258790234267E-01    4.8341064535986327E+00    4.0117320803384615E-01
Cu    3.0351275063678789E+00    7.4672103919686839E+00    3.9653574794151542E-01
Cu    5.5135762093875451E-01    4.8840545692246851E+00    4.0825374093422164E+00
Cu    2.9825339162312372E+00    7.5085510648725098E+00    3.9458532314628889E+00
Cu    3.1126290725544652E+00    4.8374860811669356E+00    4.5342973057870911E-01
Cu    5.4534151440992107E-01    7.3608564689702112E+00    3.9110213810969346E-01
Cu    3.0586069845628749E+00    4.8172359470028949E+00    3.9570692611857599E+00
Cu    3.9804816663341586E-01    7.1922107480319477E+00    4.0349831957257773E+00
Cu    4.2821236832272671E+00    6.1549106142557353E+00    2.5117550420748131E+01
Cu    1.6286770208726871E+00    8.6625119080119859E+00    2.5086810856246977E+01
Cu    4.3382362918956270E+00    6.0893756744766687E+00    2.4266327892294610E+00
Cu    1.7668923670304848E+00    8.7024285477198386E+00    2.2023060876182177E+00
Cu    1.7671591288804409E+00    6.0124615463835269E+00    2.5172382952082746E+01
Cu    4.2625011803777095E+00    8.5621742191313679E+00    2.4961524704123260E+01
Cu    1.8465664119208063E+00    6.1244790330664225E+00    2.1985352485811362E+00
Cu    4.2204655926605668E+00    8.4840407266370086E+00    2.2219331983602686E+00
Cu    5.5511980752925494E+00    4.7976302228962364E+00    5.3899594664593375E-01
Cu    8.1809941350855944E+00    7.3781297270625732E+00    4.8660254895771299E-01
Ag    5.7018481885185412E+00    4.6937573891473328E+00    4.5665055068888547E+00
Cu    8.1633298365049889E+00    7.3704419842532829E+00    3.9811646868071264E+00
Cu    8.2744906246522429E+00    4.6837177470003653E+00    5.5890880702189827E-01
Cu    5.6268385387671334E+00    7.4604101988865166E+00    5.0773755751090344E-01
Cu    8.2301230288843925E+00    4.8913650742410564E+00    3.9042675417907278E+00
Cu    5.5766206341513858E+00    7.3782710480772877E+00    4.0889876568543819E+00
Cu    9.3955895143251897E+00    6.0477569122863715E+00    2.5036183691897488E+01
Cu    6.9568332997787836E+00    8.5863706199338665E+00    2.5199379064144029E+01
Cu    9.4639840151151855E+00    6.1812270265411318E+00    2.2306696989190669E+00
Cu    6.8118810700535022E+00    8.7453259233773224E+00    2.4090095258389566E+00
Cu    6.9227415667427250E+00    5.9835857935028773E+00    2.5293937585059847E+01
Cu    9.4513164454009093E+00    8.5492099736787068E+00    2.5050301340102717E+01
Cu    6.8154217065270695E+00    6.1905484937086888E+00    2.2189751467136052E+00
Cu    9.4925533045471404E+00    8.5481413069320187E+00    2.1914909609627591E+00
O    1.1064457637207950E+00    2.0066532136413544E+00    7.4581011534079629E+00
H    1.0680308224618518E+01    2.5846600461787652E+00    6.9769335637761092E+00
H    1.9961539428083865E+00    1.9846473467728369E+00    6.9151654991853908E+00
O    7.1303635411497401E+00    1.2301489701891871E+01    7.5874190775009289E+00
H    6.8275088186295028E+00    1.6319411052691890E+00    8.4194199735855033E+00
H    6.3154560587789916E+00    2.6391816774062797E+00    7.3921716092771046E+00
O    2.3846674329467175E+00    4.4260816297127625E-01    1.8261188615624949E+01
H    1.8115149750072914E+00    8.4101870287249170E-01    1.8991224705778595E+01
H    2.4922422205707293E+00    9.7144236096572758E+00    1.8638834868659206E+01
O    1.9355018165904576E+00    4.5578167684912598E+00    8.8875861555892222E+00
H    2.1123451212849633E+00    3.6437665914303108E+00    8.6862583471451664E+00
H    2.0461926857142068E+00    5.0795704104337309E+00    8.0674136118791822E+00
O    2.2179304450526982E+00    6.1741511899156736E+00    6.9110165034943334E+00
H    3.1507478399587061E+00    5.9613987953177343E+00    6.6983209685879723E+00
H    1.7499304336262100E+00    6.3143166619315894E+00    6.0195535037584289E+00
O    1.9526130448604262E+00    4.7065509998688508E+00    1.2361867084036225E+01
H    2.1782573161227736E+00    3.9636430722982809E+00    1.1742905770105324E+01
H    1.7594780591250003E+00    4.2097311001795408E+00    1.3175898003057720E+01
O    6.3961614009343815E-01    6.0548072141372993E+00    1.7775871578504617E+01
H    2.3950772589265740E-01    5.7200644646705294E+00    1.6961710173322242E+01
H    1.3809996635187638E+00    6.6992886205706457E+00    1.7583971092055947E+01
O    6.6854718194888818E+00    1.4842633853078277E-01    2.2079221364457364E+01
H    6.4757710246186191E+00    9.7861919965265649E+00    2.1303862816860402E+01
H    5.9460962022219581E+00    3.4998735451984958E-01    2.2662150811559936E+01
O    7.0429252433107221E+00    4.9237705731363999E+00    1.9565193406826538E+01
H    7.5545470372562287E+00    5.7354938632768242E+00    1.9692892044097686E+01
H    6.1104750245647672E+00    5.2523373095866184E+00    1.9503511801018867E+01
O    1.3026508953804530E+00    8.0338936417042159E+00    1.3727326222672644E+01
H    5.4646042563392083E-01    7.4608569210967000E+00    1.3452089698011763E+01
H    9.6504240792464913E-01    8.9389538968846995E+00    1.3589274252508865E+01
O    8.0279080732709698E+00    3.6578708619324694E+00    1.7421484781891053E+01
H    7.2802264951576552E+00    3.3094959410699691E+00    1.6743658140631496E+01
H    7.5978990446807781E+00    4.2081449164566758E+00    1.8108316999157388E+01
O    9.2097025602244447E+00    1.0563538392457655E+01    2.2065668053178197E+01
H   -4.2315427937932737E-01    1.0483510663772909E+01    2.2841036048273509E+01
H    8.2407174154341565E+00    2.5093590387340681E-01    2.2295225526407716E+01
O    3.9988999680266262E+00    5.5835867879266292E+00    1.9062800737173564E+01
H    3.2249952188429227E+00    5.0074110723188907E+00    1.9381120235569401E+01
H    4.0991428745053788E+00    5.2854236195643960E+00    1.8133065551118793E+01
O    4.3655363793115596E+00    5.4107078216042446E+00    1.3295827167267186E+01
H    3.3420155185135645E+00    5.4262529835529572E+00    1.3005194377058077E+01
H    4.6123398542768674E+00    6.3451786279200570E+00    1.3529156779552693E+01
O    2.8299434092248270E+00    7.1758997232989703E+00    1.6137541002661557E+01
H    2.2582097268898087E+00    7.3038010405412601E+00    1.5396496773722127E+01
H    3.3284618273498534E+00    8.0173011310070414E+00    1.6131045237278187E+01
O    6.2794588474612283E+00    4.5225327465296914E+00    1.1936392677584521E+01
H    5.5337322241476175E+00    4.9245083199768587E+00    1.2464266259202384E+01
H    6.6778017285331490E+00    3.9784577866687791E+00    1.2633018344354722E+01
O    6.7866680898660494E+00    9.5936706984558526E+00    1.7272548151332906E+01
H    7.2774231293669978E+00    1.0423831606653552E+01    1.7325525560515246E+01
H    7.2761663170549813E+00    8.8888897011540067E+00    1.6747997101005193E+01
O    1.8891204704396989E+00    8.0116707614352194E+00    1.1032678196898960E+01
H    2.3635620357294154E+00    7.1245511931075534E+00    1.1040946138129044E+01
H    1.7179095699985720E+00    8.0557441564073624E+00    1.2054351294210473E+01
C    5.4600215775696173E+00    4.7118356258955680E+00    6.6680270249021039E+00
O    3.5494937623915708E+00    1.1563069948533946E+00    1.4271835303779797E+01
H    4.2961609922439292E+00    1.5490455134579058E+00    1.3775812309929988E+01
H    3.0464880292787155E+00    4.7452873391940820E-01    1.3694939750766780E+01
O    8.5442363133186472E+00    9.7807838308380290E+00    1.1557019738995482E+01
H    8.0887961419340346E+00    9.3536498375224006E+00    1.2306294340124280E+01
H    9.1262037008122405E+00    8.3893836208058958E-02    1.2091384631038929E+01
O    2.9730124371214219E+00    1.1337810459712661E+00    2.2331727655989088E+01
H    2.7722253634441349E+00    1.3164499044877398E+00    2.3230747206881482E+01
H    2.2383127399686700E+00    1.4028226161697350E+00    2.1774171942908229E+01
O    9.8090506625313747E+00    7.0731163962171681E+00    2.2260623905888323E+01
H    9.4035339822771604E+00    7.5384491043609945E+00    2.3007363640943701E+01
H    9.2265414829550547E+00    7.1298881426989986E+00    2.1478599595944935E+01
O   -2.9071794427408143E-01    2.2409961685344930E+00    1.5185515912893594E+01
H    5.0047491438201064E-01    2.8802984584246381E+00    1.5344804463343776E+01
H   -1.5876293022241916E-01    1.5168620418125607E+00    1.5858474242124329E+01
O    7.8418323737371320E+00    6.6595552192662497E+00    1.1288774941794241E+01
H    7.2690750433575744E+00    5.8699225057992654E+00    1.1530724494864938E+01
H    7.2522113815159130E+00    7.3023613189245875E+00    1.0663723299977640E+01
O    1.9976860880177543E+00    3.3466915577095060E+00    1.4909254462445110E+01
H    2.6227945344198003E+00    3.8386299967426014E+00    1.5601500867088516E+01
H    2.4390511179571197E+00    2.3907459568270868E+00    1.4804210255773210E+01
O    3.5121082938156500E+00    5.2659271365620528E+00    2.2030706317908415E+01
H    3.4091493090303104E+00    5.1510030825433146E+00    2.3009037497820827E+01
H    4.3996497246560127E+00    5.8095399566479911E+00    2.1980960203496732E+01
O    1.4679633407292605E+00    4.3056923266670974E+00    1.9638662707756936E+01
H    1.0320886191603291E+00    4.4869304037039814E+00    2.0521450643345851E+01
H    9.8967115174345521E-01    5.0120544280298986E+00    1.9039113839255098E+01
O    4.0553634115122552E+00    9.5958474476062108E+00    1.1836967986522110E+01
H    4.6096801129274612E+00   -2.5798809476411355E-01    1.1092521535651375E+01
H    3.3608454490968054E+00    9.0106876096365713E+00    1.1395673528864924E+01
O    4.7235153296252195E+00    1.7833284908693907E+00    1.8751437211341962E+01
H    3.9442687475760323E+00    1.1550671466457787E+00    1.8655028660493105E+01
H    4.3238611075569580E+00    2.4083235880522778E+00    1.9364566787275642E+01
O    3.1771501350711637E+00    9.6011975381870318E+00    6.4974595905602532E+00
H    2.3461763724655538E+00    9.2127152770912186E+00    6.8327652138825385E+00
H    3.9039378656160135E+00    8.8631022801048687E+00    6.3649579189771384E+00
O    6.2413091144593631E+00    1.3047118773518764E+00    1.4188945966343139E+01
H    6.7683096104341871E+00    1.9502470158297789E+00    1.3699484415211096E+01
H    6.6933901111733318E+00    3.7244509710279872E-01    1.4000270342673325E+01
O    6.2395578868675381E+00    3.7610798367771703E-01    1.0033163146893711E+01
H    7.1083262169206636E+00    1.0672066369744822E+01    1.0530303235431992E+01
H    5.8192965752840387E+00    1.2656095541932584E+00    1.0086946824335390E+01
O    7.5586372278631906E+00    9.1657467847148020E+00    1.3790789684574751E+01
H    6.6864929862903946E+00    8.6054592285881313E+00    1.3663612170510293E+01
H    7.9705987566177727E+00    8.8812078635434517E+00    1.4661588760354777E+01
O    5.4011408197143416E+00    8.0080114056945675E+00    6.1848576016774492E+00
H    6.2482813918329398E+00    8.6029062462782431E+00    6.2550827317958468E+00
H    5.6399158889822596E+00    7.0947496977767361E+00    6.6839348025651013E+00
O    9.5632072238899823E+00    5.0093516164702336E+00    9.8063825283007375E+00
H    2.5068766456506053E-01    5.1540872159994464E+00    9.4792487441805893E+00
H    9.1238651468760796E+00    5.8522666046395244E+00    1.0228539596275494E+01
O    5.9463591877112494E+00    8.8771066521016255E+00    2.0074027565044535E+01
H    6.1732788330047317E+00    9.1486044820015362E+00    1.9161290977709008E+01
H    4.9588478008231744E+00    8.7827532524727321E+00    1.9933350248486200E+01
O   -1.7654692253866688E-02    1.0103639353753930E+01    1.6881836425902272E+01
H    9.7553176605855929E-01    1.0218754519274921E+01    1.7059341298573358E+01
H   -4.0820840704748873E-01    1.0214607393512136E+01    1.7784582700112843E+01
O    7.4894122436569432E+00    1.7499171443341965E+00    1.9163176323142608E+01
H    6.4768377076299810E+00    1.7841689304225734E+00    1.9232704019428805E+01
H    7.7550525217146431E+00    2.4903761546473375E+00    1.8435589735579093E+01
O    8.7147635344901726E+00    2.6266839063155323E+00    1.0818878309898025E+01
H    9.3503113801887832E+00    1.9279525642071809E+00    1.0489944567031198E+01
H    9.0630670079061275E+00    3.5271661135256878E+00    1.0416509929975975E+01
O    1.2235455624394338E-01    4.5674563472156064E+00    2.2126241177424404E+01
H    7.2131111012847193E-01    4.4103761730203646E+00    2.2880835225173328E+01
H   -1.7549428931878022E-01    5.4940349127745911E+00    2.2286031107324771E+01
O    3.7921966526331663E+00    5.9967958384128881E+00    1.0413793000918290E+01
H    3.3183079747672672E+00    5.2455813830400491E+00    9.9093099467389738E+00
H    4.0198743298158064E+00    5.8118955075364802E+00    1.1317618030429232E+01
O    6.5422870785069920E+00    7.6726837296706973E+00    9.2754510105507233E+00
H    5.6687223512383076E+00    7.3016267455311992E+00    9.3058369127312908E+00
H    6.4851141489233459E+00    8.6411664662146759E+00    9.2349347068372296E+00
O    8.0341070895985460E+00    3.0000993931911566E+00    1.3345642441853245E+01
H    8.4156753704756362E+00    2.9796656683637668E+00    1.2467180057628093E+01
H    8.7060871240672846E+00    2.8647564086362558E+00    1.4068328467259693E+01
O    5.9322950621839343E+00    2.7488603756510281E+00    1.6125408831207555E+01
H    6.1508058739073661E+00    2.0786449242659613E+00    1.5497115557307080E+01
H    5.5841067144887573E+00    2.3713615857646846E+00    1.6931160604283487E+01
O    3.8576616963277974E+00    4.5498619248381322E+00    1.6573600530149871E+01
H    4.5377800852534946E+00    4.1128660384692362E+00    1.6134784951892371E+01
H    3.6358446556492066E+00    5.3951408587227201E+00    1.6016523457606965E+01
O    9.0915032194824512E+00    9.8561517520287456E+00    1.9501835157505162E+01
H    8.3536397038526129E+00    2.3416779315745007E-01    1.9389758994069417E+01
H    9.3069716179974531E+00    1.0084923797640188E+01    2.0459770730809886E+01
O    5.8864458790509095E+00    6.7013095010143076E+00    2.2124710922805143E+01
H    5.9839289959939199E+00    7.5360431924875488E+00    2.1582757235080059E+01
H    5.8786165190681325E+00    6.9562809541089834E+00    2.3098965387067310E+01
O   -3.9561834576435673E-01    8.0900252641255470E+00    9.3813529199146792E+00
H    4.0585083387776449E-01    8.0974065819315477E+00    9.8892802181844708E+00
H    9.3246699060019296E+00    8.5713775075028451E+00    1.0065717793184879E+01
O    9.2856419991652004E+00    5.4244736572643619E+00    1.5597385368628292E+01
H    9.6224702425040576E+00    5.3578536082816610E+00    1.4642603411670102E+01
H    9.0992949165751416E+00    4.5049441351353279E+00    1.5935467107429147E+01
O    2.5419660426823358E+00    2.4433285898688770E+00    1.1216470026058280E+01
H    1.9741476020262467E+00    1.6767092767789933E+00    1.0931838981228543E+01
H    3.3644653007772152E+00    2.2257623771035542E+00    1.0764884823357937E+01
O    9.0164737840883120E+00    3.7269373428572852E+00    6.8407831302721984E+00
H    8.7550810585303047E+00    3.6250517440842387E+00    5.8653919177566349E+00
H    8.4110094439007952E+00    3.1649970656888606E+00    7.4550967861517154E+00
O    8.7848606675766590E+00    7.2723373528583437E+00    1.9626762970111411E+01
H    9.5359758386377482E+00    7.0865152836853325E+00    1.8971432231050425E+01
H    8.8347574416803045E+00    8.3085818765950297E+00    1.9732868428901725E+01
O    1.0967814724937992E+00    1.7256812825709968E+00    2.0441084796288344E+01
H    1.1018414106795051E+00    2.7175322403370474E+00    2.0212211563487241E+01
H    2.3167282405749023E-01    1.5003708642934583E+00    2.0784240366330490E+01
O    5.0323888744989027E+00    2.6546369528146068E+00    1.0097096842180301E+01
H    4.9310210703513544E+00    3.2305633306078247E+00    9.2756787050832585E+00
H    5.6257433316037204E+00    3.2464176096051531E+00    1.0671262537291970E+01
O    3.3737952915538658E+00    2.1615236994684155E+00    6.2176930029997814E+00
H    4.0691411925753433E+00    2.9680987327180754E+00    6.6215520063691047E+00
H    3.7373915536882722E+00    1.2539642719143991E+00    6.2593085194113289E+00
O    3.8619782243715308E+00    8.8383435063235751E+00    2.2915327138608333E+01
H    3.7675821775838005E+00    9.7952640604649162E+00    2.2672862049965033E+01
H    3.0181183539960768E+00    8.3049433540895592E+00    2.2519889459515905E+01
O    5.2817711092613262E+00    8.0728383327383160E+00    1.3683035846972208E+01
H    4.9237709421908624E+00    8.5022494815718712E+00    1.4532073632963744E+01
H    4.9044998216160209E+00    8.7180586373831268E+00    1.2978013637691960E+01
K    8.6439334785698581E+00    6.3551022122742218E+00    7.4161777463506002E+00
O    6.6516048703915909E-01    4.5254159339232708E-01    1.3279092142816292E+01
H    3.0977983625306255E-01    9.2861197543238161E-01    1.4117561552076689E+01
H    8.9673391226695331E-01    1.1237956564797988E+00    1.2602163558242033E+01
O    8.4583501707289752E+00    8.0021457730206507E+00    1.6091970003973124E+01
H    9.2840062918814308E+00    8.4491568850067473E+00    1.6192569714772514E+01
H    8.7309984900482398E+00    7.0289008223927985E+00    1.5898919502790674E+01
O    2.1125859245460359E+00    7.3596381347305586E+00    2.1457919396950771E+01
H    1.1739722094120506E+00    7.3776610531136866E+00    2.1687103115898619E+01
H    2.4903452140456523E+00    6.4384439747073188E+00    2.1600860425834391E+01
O    4.3782872692955843E+00    9.3171802055466291E+00    1.6162094643927741E+01
H    4.1038179793425140E+00    1.0202786458040515E+01    1.5778892362327788E+01
H    5.2918583586983408E+00    9.4503780709656233E+00    1.6486086501581699E+01
O    7.8890660929560608E-01    7.4037771889040938E-01    1.0016670415036526E+01
H    1.1464556261671819E+00    1.1122003506794722E+00    9.1972674277603534E+00
H    1.1107643827635538E+00    1.0058143372027057E+01    1.0032097940832218E+01
O    9.7832160543448587E+00    6.1830074958809202E+00    1.2958356641383949E+01
H    2.7357601718380792E-01    5.7165561086420844E+00    1.2397696562071015E+01
H    8.9521702957669316E+00    6.2318477758837174E+00    1.2422441552039182E+01
O    2.7084541780201443E-01    9.5341036579250460E+00    7.0430661929164815E+00
H    4.4942950980021118E-01    2.3070938522984072E-01    7.1200995781628693E+00
H    7.5672480259065950E-02    9.3224739726325652E+00    7.9848699846353854E+00
O    7.7714678924692109E+00    1.0033217276157952E+01    6.1146460908509903E+00
H    7.5203475384903484E+00    1.0917035604192543E+01    6.5323160749262081E+00
H    8.7193388612698826E+00    9.7713399735519904E+00    6.4817781215039654E+00
O    3.3346579428816474E+00    8.3496031937755060E+00    1.9372782943728712E+01
H    3.4707975616203406E+00    7.4322051214699068E+00    1.9071911374563292E+01
H    2.8285286994356404E+00    8.0539773511976094E+00    2.0275644631581432E+01
K    7.6157572084279250E+00    3.1134513311773686E+00    2.1780695049991817E+01
O    4.8667954325215890E+00    3.0704996491826786E+00    2.1164761983501343E+01
H    4.2932503930931034E+00    3.7939056377859992E+00    2.1664981449951235E+01
H    4.3814436487929482E+00    2.2635618172599656E+00    2.1507791654399917E+01
O    5.6807044378211078E+00    5.7617800413603186E+00    7.3443566956843283E+00
O    5.0242558069295828E+00    3.6663501426683469E+00    7.4048617199225228E+00
     &END COORD
     &VELOCITY
           3.7298908286775295E-05   -6.1769958577497514E-05   -7.2839487967543771E-05
           1.2980378845342899E-04   -5.6704577373334328E-05   -1.0163849308181339E-04
           1.0937304646517573E-04    2.2705572762497567E-05    5.9834315160549794E-05
          -1.6341439146473426E-04    4.4516650840445284E-05   -4.2016266643855262E-05
          -2.7708899138437197E-05   -6.3207008077941927E-05    8.1966502992216232E-05
          -1.6504325819034069E-05   -1.8327816230168941E-06   -1.1610394171663289E-04
           7.7499835973370671E-05   -2.8912586062786493E-05   -1.1822753062042141E-04
           6.6596725972906340E-05    1.4154351550626260E-05    8.7863665305681649E-05
          -1.3089822181510088E-04    3.1435081720487432E-05   -4.1808243783634179E-05
           6.8773449065864735E-05   -8.9937046365663983E-05    1.7531043176614389E-04
          -3.5476012745083482E-05    1.4449254206626568E-06    6.3517664426967006E-06
          -1.5621821623475380E-05    2.4704562822973915E-05    6.9515797413396381E-07
           5.8475629255878322E-06    5.8719088773774896E-05    1.7257997034065485E-05
          -9.8659969294212594E-06   -8.6388100995122083E-05    5.7788296957766892E-05
          -7.4507272044697096E-05   -2.4566447241864615E-07    8.1003815141521241E-05
           1.1866636775860248E-04    1.3723496495147401E-05   -1.0904890740726436E-04
          -8.5145278802884085E-05   -3.8979286968821767E-05   -4.7594759734084195E-05
           4.7156780663510819E-05   -1.1718016860890822E-04   -3.9132675859917176E-05
          -2.4057153271462881E-05    6.2585327068196119E-05    8.9022580645046532E-05
          -2.9622010997426831E-05    7.4622130868061201E-06   -7.8210739809889123E-06
          -4.6942410173383586E-05   -1.1517493803779561E-04    2.7690723415536931E-05
           1.7729669990374279E-05    6.8437336220398875E-05    7.3747284698136523E-05
          -8.8427845013637078E-05   -4.9440353543198888E-05    4.0872268255466130E-05
           2.1822992212486964E-06    7.3774372080182354E-05   -7.5783225005963313E-05
          -2.3887031366687779E-04    9.5258892761969049E-05    8.6896197495887743E-05
           3.6733087928257654E-05    8.3105020285752134E-05   -4.3287946131533890E-06
           1.3411199659419981E-05   -8.7480105562873692E-05    2.1223772462608059E-05
          -2.7248886900099718E-05   -6.1575227380867396E-05    1.0354712362291132E-04
           7.1081466684972208E-05   -1.5627280156017934E-04   -6.2378219286186626E-05
          -5.1746596689710258E-05    5.0698949663705287E-05   -3.3952551959698578E-05
          -1.1826257457525374E-04   -9.1993218972740603E-06   -3.0634940191421196E-04
          -5.8132552900504628E-05   -3.8718742826346140E-05   -5.1775263492812521E-05