 # Version information for this restart file 
 # current date 2026-02-25 00:44:57.898
 # current working dir /home/shaofl/projects/03_CuAg_SAA/explicit/1K/co2_to_cooh/from_ad_h2o/sg2
 # Program compiled at                              Wed Jun 16 17:08:34 CST 2021
 # Program compiled on                                                       mgr
 # Program compiled for                                       Linux-x86-64-intel
 # Source code revision number                                       git:e635599
 &GLOBAL
   PRINT_LEVEL  LOW
   PROJECT_NAME slowgrowth
   RUN_TYPE  MD
 &END GLOBAL
 &MOTION
   &MD
     ENSEMBLE  NVT
     STEPS  8000
     TIMESTEP     9.9999999999999989E-01
     STEP_START_VAL  1000
     TIME_START_VAL     9.9999999999999272E+02
     ECONS_START_VAL    -4.3014588840744354E+03
     TEMPERATURE     3.0014999999999998E+02
     &THERMOSTAT
       TYPE  NOSE
       REGION  GLOBAL
       &NOSE
         LENGTH  3
         TIMECON     2.2237606346543473E+01
         &COORD
               5.5629690374131471E-02    9.5001402289202481E+00   -3.5140898093040427E+00
         &END COORD
         &VELOCITY
               1.8953764260028621E-05   -1.1595150255199660E-03   -5.5280605827883530E-04
         &END VELOCITY
         &MASS
               6.4750332819943212E+05    8.0335400521021347E+02    8.0335400521021347E+02
         &END MASS
         &FORCE
              -4.2452006892661425E-08   -8.9363738922671981E-07    1.6128609040230853E-07
         &END FORCE
       &END NOSE
     &END THERMOSTAT
     &AVERAGES  T
       &RESTART_AVERAGES
         ITIMES_START  1
         AVECPU     1.8391838570769867E+01
         AVEHUGONIOT     0.0000000000000000E+00
         AVETEMP_BARO     0.0000000000000000E+00
         AVEPOT    -4.3018749564842456E+03
         AVEKIN     3.8224580272673070E-01
         AVETEMP     2.9951249074047507E+02
         AVEKIN_QM     0.0000000000000000E+00
         AVETEMP_QM     0.0000000000000000E+00
         AVEVOL     1.8637835790266097E+04
         AVECELL_A     1.9320371010009548E+01
         AVECELL_B     1.9320371010009548E+01
         AVECELL_C     4.9930343883104619E+01
         AVEALPHA     9.0000000000000000E+01
         AVEBETA     9.0000000000000000E+01
         AVEGAMMA     9.0000000000000000E+01
         AVE_ECONS     1.6376243237766634E+01
         AVE_PRESS     0.0000000000000000E+00
         AVE_PXX     0.0000000000000000E+00
       &END RESTART_AVERAGES
     &END AVERAGES
     &PRINT
       &ENERGY  SILENT
       &END ENERGY
     &END PRINT
   &END MD
   &CONSTRAINT
     &COLLECTIVE
       COLVAR  1
       INTERMOLECULAR  T
       TARGET     7.1809593049659171E-01
       TARGET_GROWTH    -9.1420578484471594E-06
     &END COLLECTIVE
     &LAGRANGE_MULTIPLIERS  SILENT
       COMMON_ITERATION_LEVELS  1
       FILENAME constraint_force.dat
     &END LAGRANGE_MULTIPLIERS
   &END CONSTRAINT
   &PRINT
     &TRAJECTORY  SILENT
       &EACH
         MD  5
       &END EACH
     &END TRAJECTORY
     &VELOCITIES  SILENT
       &EACH
         MD  5
       &END EACH
     &END VELOCITIES
     &RESTART  SILENT
       &EACH
         MD  10
       &END EACH
     &END RESTART
   &END PRINT
 &END MOTION
 &FORCE_EVAL
   METHOD  QS
   &DFT
     BASIS_SET_FILE_NAME BASIS_MOLOPT
     POTENTIAL_FILE_NAME GTH_POTENTIALS
     WFN_RESTART_FILE_NAME ./1-RESTART.wfn
     UKS  T
     CHARGE  0
     &SCF
       MAX_SCF  60
       EPS_SCF     1.0000000000000001E-05
       SCF_GUESS  ATOMIC
       &OT  T
         MINIMIZER  BROYDEN
         BROYDEN_BETA     9.0000000000000002E-01
         BROYDEN_SIGMA     1.0000000000000001E-01
         LINESEARCH  2PNT
         PRECONDITIONER  FULL_ALL
       &END OT
       &OUTER_SCF  T
         EPS_SCF     1.0000000000000001E-05
         MAX_SCF  50
       &END OUTER_SCF
       &PRINT
         &RESTART_HISTORY  SILENT
           ADD_LAST  NUMERIC
           FILENAME = MD_RESTART_HISTORY.wfn
           BACKUP_COPIES  5
           &EACH
           &END EACH
         &END RESTART_HISTORY
       &END PRINT
     &END SCF
     &QS
       EPS_DEFAULT     9.9999999999999998E-13
       EPS_PGF_ORB     9.9999999999999995E-07
       EXTRAPOLATION  ASPC
       EXTRAPOLATION_ORDER  2
     &END QS
     &MGRID
       NGRIDS  5
       CUTOFF     4.5000000000000000E+02
       REL_CUTOFF     6.0000000000000000E+01
     &END MGRID
     &XC
       DENSITY_CUTOFF     1.0000000000000000E-10
       GRADIENT_CUTOFF     1.0000000000000000E-10
       TAU_CUTOFF     1.0000000000000000E-10
       &XC_GRID
         XC_SMOOTH_RHO  NN10
         XC_DERIV  NN10_SMOOTH
       &END XC_GRID
       &XC_FUNCTIONAL  NO_SHORTCUT
         &PBE  T
         &END PBE
       &END XC_FUNCTIONAL
       &VDW_POTENTIAL
         POTENTIAL_TYPE  PAIR_POTENTIAL
         &PAIR_POTENTIAL
           R_CUTOFF     1.0000000000000002E+01
           TYPE  DFTD3
           PARAMETER_FILE_NAME dftd3.dat
           REFERENCE_FUNCTIONAL PBE
         &END PAIR_POTENTIAL
       &END VDW_POTENTIAL
     &END XC
     &PRINT
       &MULLIKEN  SILENT
         FILENAME =CHARGE.mulliken
         &EACH
           MD  5
         &END EACH
       &END MULLIKEN
     &END PRINT
   &END DFT
   &SUBSYS
     &CELL
       A     1.0223900000000002E+01    0.0000000000000000E+00    0.0000000000000000E+00
       B     0.0000000000000000E+00    1.0223900000000002E+01    0.0000000000000000E+00
       C     0.0000000000000000E+00    0.0000000000000000E+00    2.6422000000000001E+01
       PERIODIC  XYZ
       MULTIPLE_UNIT_CELL  1 1 1
     &END CELL
     &COORD
Cu    5.1728772083308583E-01    9.9797634407613103E+00    4.0814266138514788E-01
Cu    2.9931715588368228E+00    2.2865712791011390E+00    4.2728171493050687E-01
Cu    4.1125987847244727E-01    9.9673483324815191E+00    4.0586125547567340E+00
Cu    3.0029573244912244E+00    2.1728675288991810E+00    4.2871001556644917E+00
Cu    2.9819460075234203E+00    1.0060171300444468E+01    4.5397212079889537E-01
Cu    5.7875004805553520E-01    2.3377043980032357E+00    4.0186054599470455E-01
Cu    2.8548995269689055E+00    9.8731016542331869E+00    4.1974911264422481E+00
Cu    3.3437706568967890E-01    2.4270410269615024E+00    4.1262782504660809E+00
Cu    4.4674975626311451E+00    9.7473313584200960E-01    2.5104632336345755E+01
Cu    1.6388255995157963E+00    3.7809108126723712E+00    2.5154007196019712E+01
Cu    4.3992057599001955E+00    1.1227835186834592E+00    2.3340218292760615E+00
Cu    1.9140383057506740E+00    3.5766781986556384E+00    2.2711730732850119E+00
Cu    1.7629821640725287E+00    1.1189531764130847E+00    2.4970929916348901E+01
Ag    4.4590468675403754E+00    3.5286649866577471E+00    2.4793324308010458E+01
Cu    1.8677007628273834E+00    1.0816796995925815E+00    2.3195447404108491E+00
Cu    4.4575028365029681E+00    3.5680730119722734E+00    2.4484213720180636E+00
Cu    5.5107182317739278E+00    9.9434303152936714E+00    4.0176442142893454E-01
Cu    8.1916300827323294E+00    2.1867097048576771E+00    4.9145964696984223E-01
Cu    5.5764340587269459E+00    1.0009730594602757E+01    4.0575212926603106E+00
Cu    8.2444775017302714E+00    2.3466821426787550E+00    4.1154078824432903E+00
Cu    8.1991008613892546E+00    9.9956463008241361E+00    5.0799810758653086E-01
Cu    5.5400376386036250E+00    2.5102509004233213E+00    5.7859675550728795E-01
Cu    8.1456976937910621E+00    9.9711724445824839E+00    4.0407117497261718E+00
Cu    5.6198129603307017E+00    2.1940470929248592E+00    4.2605770666245100E+00
Cu    9.4963708215236213E+00    8.7603958295046180E-01    2.5106569338526764E+01
Cu    7.0914847995521448E+00    3.5933442608249493E+00    2.5180877302723264E+01
Cu    9.5997505512096328E+00    1.0151214225222633E+00    2.2043798902651512E+00
Cu    7.0332017847338317E+00    3.5773474702726791E+00    2.3818426105131016E+00
Cu    6.9511335642494725E+00    1.1632225239434677E+00    2.5235950885790153E+01
Cu    9.4255149813808821E+00    3.6257432900526481E+00    2.5099493557795558E+01
Cu    6.9317720656900548E+00    1.0529027644946680E+00    2.4273199045171396E+00
Cu    9.6074818107562052E+00    3.5148839960161884E+00    2.2681308537295348E+00
Cu    4.7467581923872165E-01    4.8433414051897108E+00    5.1146474882597626E-01
Cu    3.1069025052427337E+00    7.4694072867589867E+00    4.1288843236570127E-01
Cu    6.1995584652955715E-01    4.9490104314671850E+00    4.2028114309247320E+00
Cu    3.0373695383784134E+00    7.2584492552474078E+00    3.9067615939770399E+00
Cu    3.0431567870919882E+00    4.8174647075350165E+00    5.4448083139293946E-01
Cu    4.9062118742789507E-01    7.3348567496929293E+00    4.3831016624896163E-01
Cu    3.0893181342601324E+00    4.8148464515777736E+00    4.1816613610035027E+00
Cu    4.9571918280333988E-01    7.3790265636061791E+00    4.0545947566743283E+00
Cu    4.4044289823055429E+00    6.1480122801282882E+00    2.5190086525499137E+01
Cu    1.7857378091755916E+00    8.7631049638448708E+00    2.5160411625872150E+01
Cu    4.3695509571363971E+00    6.0035526888233006E+00    2.3405510463940775E+00
Cu    1.6742052155013440E+00    8.7059935713057222E+00    2.2727185884498091E+00
Cu    1.7998435544392899E+00    6.0744880442864293E+00    2.5211834405422998E+01
Cu    4.2565347211003779E+00    8.7740454557192677E+00    2.4957393061786725E+01
Cu    1.7748761019293162E+00    6.0884517115789167E+00    2.1586654913977679E+00
Cu    4.3362542244574618E+00    8.7234522013027593E+00    2.3197892224909791E+00
Cu    5.6322943859566523E+00    4.8204070966671075E+00    6.2485292259693093E-01
Cu    8.2520320795198696E+00    7.3904712213119099E+00    5.3819493497931414E-01
Ag    5.7307830940327840E+00    4.8817187262275645E+00    4.4244541166840197E+00
Cu    8.2060247887883531E+00    7.4759241618754597E+00    4.1657634838815314E+00
Cu    8.2303917970324658E+00    4.7947730297509175E+00    6.4291653513058489E-01
Cu    5.5245494684110570E+00    7.4308927373741556E+00    3.3563302473830597E-01
Cu    8.3488598237295104E+00    4.9490789319739106E+00    4.2105094676135977E+00
Cu    5.6775595911984400E+00    7.5791675102291656E+00    3.9899195655691804E+00
Cu    9.5376964188557523E+00    6.0462917811739132E+00    2.5113489001924130E+01
Cu    6.8517472817412495E+00    8.5877449756647763E+00    2.5177071121808137E+01
Cu    9.4402761052510886E+00    6.0558559964972511E+00    2.3552661339634833E+00
Cu    6.7989670692376736E+00    8.7956438291998129E+00    2.1860233186588269E+00
Cu    6.9699584900962401E+00    6.0904157167736637E+00    2.5180766293551951E+01
Cu    9.3355044677236236E+00    8.5913615813177291E+00    2.5074601980650506E+01
Cu    6.8209432080456445E+00    6.2664520491798461E+00    2.2813890804735024E+00
Cu    9.4083591706946486E+00    8.7497711662286104E+00    2.2773039766693368E+00
O    6.9042554801990264E-01    1.5994615109570038E+00    7.8853026352416506E+00
H    1.0324668250058261E+01    2.3679483865602893E+00    7.9662580588237555E+00
H    1.4259634814907556E+00    1.9671725518828747E+00    7.3648575195847856E+00
O    6.2691406049343108E+00    1.0237770730121202E+01    7.4347664011777805E+00
H    6.2653228925027724E+00    6.5274067364690658E-02    8.4438489863131085E+00
H    5.8905361003568322E+00    8.6819075402091739E-01    7.1070913754603842E+00
O    2.3048760713942329E+00    3.6803889097386688E-01    1.8201386162823070E+01
H    1.7814528948074690E+00    7.9742564664143201E-01    1.8898111193896089E+01
H    2.6161292482246346E+00    9.7904852717208488E+00    1.8672814479200024E+01
O    2.1562023446003855E+00    4.9362359290925077E+00    9.3612645187820878E+00
H    2.5246528515587392E+00    4.0166740317501350E+00    9.5110483437783522E+00
H    2.0692355652420851E+00    5.0969959311403201E+00    8.3494515220496304E+00
O    1.8953881544451752E+00    6.0948779891265392E+00    7.2190642699291043E+00
H    2.7882983066052440E+00    6.4141669616775019E+00    7.4740161180869986E+00
H    1.8731610170491753E+00    5.9494585950082453E+00    6.2491985170748592E+00
O    2.0431033081535839E+00    4.5243450162474206E+00    1.2676946346719868E+01
H    2.3928533567663792E+00    3.8174625680894079E+00    1.2006380695775528E+01
H    1.8044899895828230E+00    3.9788253901545381E+00    1.3453778886133170E+01
O    7.8625364741338077E-01    6.0959524558597620E+00    1.7812960022204297E+01
H    3.8687913840152716E-01    5.5685843849805048E+00    1.7104286659457838E+01
H    1.3510199019479177E+00    6.7145805190911840E+00    1.7240250771882781E+01
O    6.7931372318718966E+00    4.8752854048455230E-01    2.1815828620876037E+01
H    6.3677410898540021E+00    1.0001430622961387E+01    2.1320397634351423E+01
H    6.3816665064776323E+00    5.0795639432779593E-01    2.2698032816782593E+01
O    7.3592028104956011E+00    5.2403732561468566E+00    1.9113453071661624E+01
H    7.7677385590737860E+00    6.1629069810756123E+00    1.9334408535827890E+01
H    6.3821863529915515E+00    5.4075153054920886E+00    1.9197008469459004E+01
O    1.5076157289307237E+00    8.3124133013741286E+00    1.3831113947089694E+01
H    7.3690613997944088E-01    7.5665786485078979E+00    1.3680947387332655E+01
H    1.0998108547992407E+00    9.1053052780104302E+00    1.3420768055246926E+01
O    7.5637298535538591E+00    3.6492687992560549E+00    1.6824218865325840E+01
H    6.6330271051756480E+00    3.4308972656987700E+00    1.6392782149671760E+01
H    7.4477717879189917E+00    4.4281198865448843E+00    1.7436549233418056E+01
O    9.6328138893153437E+00    1.0365966310272663E+01    2.1909310806936194E+01
H   -3.4222603305602201E-02    1.0173068013657714E+01    2.2670110159860499E+01
H    8.7100087015475545E+00    3.4936919890192680E-01    2.2311732945032709E+01
O    4.4432791623355534E+00    5.7854525946840276E+00    1.8925431420532522E+01
H    3.7432645847263326E+00    5.4074648316961476E+00    1.9543911228638493E+01
H    4.0881331431661208E+00    5.4755273979877357E+00    1.8030308589988614E+01
O    4.5410541608275379E+00    5.5180875459426462E+00    1.3441236136210275E+01
H    3.6350270832163987E+00    5.1999065558440147E+00    1.3152154854720767E+01
H    4.5825974236943550E+00    6.5581818651259622E+00    1.3522384038886461E+01
O    2.1011686117359645E+00    7.9844034332638181E+00    1.6356033732319155E+01
H    1.8756988878271308E+00    8.0997564611726016E+00    1.5366711729031671E+01
H    2.9547377160366732E+00    8.4634532354081617E+00    1.6399876481123119E+01
O    6.5123815079592857E+00    4.1007011836406306E+00    1.2010960619174785E+01
H    5.8483985135677061E+00    4.6095878754487778E+00    1.2563262041911177E+01
H    7.2164292372856593E+00    3.6649945940669140E+00    1.2650901992216658E+01
O    6.3501693726521236E+00    9.0020865306386586E+00    1.7730962977016052E+01
H    6.8556435166186844E+00    9.9695982837673931E+00    1.7862158637335394E+01
H    6.9622500299774650E+00    8.4576346310135406E+00    1.7215982360089384E+01
O    1.8970834568024817E+00    8.2220164196767200E+00    1.0763938548490886E+01
H    2.7188721980622352E+00    7.7683689467984722E+00    1.0574556135862942E+01
H    1.7599041767187185E+00    8.0309852175461049E+00    1.1732115748870326E+01
C    5.4976908686219277E+00    4.5802196426245931E+00    6.7216335089087513E+00
O    3.5134329278588576E+00    8.6637245576816890E-01    1.4260833746530192E+01
H    4.3192760308810270E+00    1.0450315673344124E+00    1.3650266157013151E+01
H    2.9285756932995728E+00    3.0554767308361103E-01    1.3654035862214606E+01
O    8.8693456041833478E+00    9.3585793215394464E+00    1.1501448278884213E+01
H    8.0754901047120047E+00    9.1227023990004223E+00    1.2142254197032953E+01
H    9.6152905310207100E+00   -4.0992117899694142E-01    1.1992803055782140E+01
O    3.5348049250676739E+00    1.0201033570342712E+00    2.1793302232159917E+01
H    3.4789977526622242E+00    1.4115972982813041E+00    2.2712375905171829E+01
H    2.6311300935737179E+00    1.0234052272468876E+00    2.1297566016129291E+01
O    9.5683650421376001E+00    6.8507721526331400E+00    2.1913034281503528E+01
H    9.2817948033228053E+00    7.2708191397689239E+00    2.2787625026444907E+01
H    9.1501478286471585E+00    7.3405838783773092E+00    2.1077338817079038E+01
O   -5.0046281608617871E-01    1.2916840092514166E+00    1.5232966437296124E+01
H    3.0621469115689498E-01    1.7678003803066606E+00    1.5533130473753831E+01
H   -6.1582176728314431E-01    4.9303673985826407E-01    1.5797047403490518E+01
O    8.0494910419917733E+00    6.1154460924844303E+00    1.1232016467012205E+01
H    7.3451427995460179E+00    5.3452680146062237E+00    1.1467950696110950E+01
H    7.5133025395075448E+00    6.9478578442957497E+00    1.0972354339376407E+01
O    1.8494987104757106E+00    2.8571310115094892E+00    1.4866972714019552E+01
H    1.7854344521803009E+00    3.6930969592366290E+00    1.5437060240590853E+01
H    2.6878567122553751E+00    2.3855549396430229E+00    1.5040099137115478E+01
O    3.5280266742890336E+00    5.1772430686306947E+00    2.2038008698778487E+01
H    3.6643030055138697E+00    4.6536654072079795E+00    2.2872077707246333E+01
H    4.4244591077588558E+00    5.7080842348356571E+00    2.1942841863772919E+01
O    1.8582042911135601E+00    4.5527127645745340E+00    1.9765427225388894E+01
H    1.3682814374752108E+00    4.9442520641069487E+00    2.0520260992279649E+01
H    1.5683960716424830E+00    5.1445152198317832E+00    1.9010785198147559E+01
O    4.0205860250389680E+00    1.0083162219257181E+01    1.1683111919151825E+01
H    4.8812180142881374E+00    1.3771258991582999E-01    1.1289129436806332E+01
H    3.3534019229215906E+00    9.9285812674893243E+00    1.0944137865908353E+01
O    4.4619740412188795E+00    2.0420607982189569E+00    1.8339202391711801E+01
H    3.7255137502682287E+00    1.3708610064857438E+00    1.8370194946012408E+01
H    4.4480522843237331E+00    2.5667052313667611E+00    1.9219000176060447E+01
O    3.0672232053287662E+00    9.6030262280098491E+00    6.5117171899444450E+00
H    2.1619784261543771E+00    9.2439775057985614E+00    6.7707047694753548E+00
H    3.7406606747345874E+00    8.8518100402085143E+00    6.6591959102103306E+00
O    6.0561956627469931E+00    1.2445790390760172E+00    1.3938232508465759E+01
H    6.8480267853306511E+00    1.8082404581789913E+00    1.3804013406404453E+01
H    6.4262139243610319E+00    3.3862967531916705E-01    1.4085538643354448E+01
O    6.3970232070831017E+00    2.7259665176754672E-01    1.0377390202904877E+01
H    7.3187895598044017E+00    1.0690091159331248E+01    1.0695824106831886E+01
H    6.0760160503859115E+00    1.1792104781095354E+00    1.0132652843395283E+01
O    7.3668899642061305E+00    8.8446699076288642E+00    1.3600128577799120E+01
H    6.3471170762774474E+00    8.4002345661758717E+00    1.3410051689902646E+01
H    7.7744390528994369E+00    8.2656465444115579E+00    1.4303406022566628E+01
O    4.9444521767614518E+00    7.7159616455443292E+00    6.4220031973346385E+00
H    5.5468355282297477E+00    8.3737133600045617E+00    6.8280509872952644E+00
H    5.3409551925428094E+00    6.8269427464368455E+00    6.8803121939745777E+00
O    9.7103769078533890E+00    4.4139203803921143E+00    9.7650460237624550E+00
H    4.3547002221321141E-01    4.5462781990363421E+00    9.7251999993269376E+00
H    9.3307653434654050E+00    5.1189139838161459E+00    1.0290707400448531E+01
O    5.8119192462141660E+00    8.7177367835497144E+00    2.0402341460868630E+01
H    6.1987397084236191E+00    8.3759801671546565E+00    1.9578707969894918E+01
H    4.7986873702089161E+00    8.7834108518611682E+00    2.0143405755799655E+01
O   -1.0585815543007661E-01    9.3405730754918572E+00    1.6821218692732508E+01
H    7.7160545266087133E-01    8.8425571204884630E+00    1.6790116658654235E+01
H   -5.2048100066200281E-02    9.7479098627489780E+00    1.7788596002821873E+01
O    7.1943238324661980E+00    1.2714283622979010E+00    1.8130527155417631E+01
H    6.3676501834039501E+00    1.4495668780864834E+00    1.8610437442312861E+01
H    7.3388671560603651E+00    2.1219196345727642E+00    1.7606612901303386E+01
O    9.1829121769422422E+00    1.9089259643070000E+00    1.1001282624737721E+01
H    9.6483571038956892E+00    1.1826229229456009E+00    1.0547529956834474E+01
H    9.2235666819105600E+00    2.8364502226585566E+00    1.0572294103044698E+01
O    1.3099975533230978E-02    4.3122356898269878E+00    2.2031296866853644E+01
H    4.8934650136202701E-01    4.0828255427648061E+00    2.2827105962271659E+01
H   -1.2839165524013035E-01    5.2881103672658440E+00    2.2201734125318975E+01
O    4.0280088145297031E+00    6.6644410164390031E+00    1.0392538495010021E+01
H    3.3988747336498935E+00    5.9157771911679129E+00    9.9876620653102943E+00
H    4.4172540683672530E+00    6.3243753203757818E+00    1.1223098991910968E+01
O    6.7947316418739625E+00    7.7712162536743774E+00    9.8484070753309485E+00
H    5.9645329272476326E+00    7.2883488313906426E+00    9.9295099254149015E+00
H    6.6780540938505952E+00    8.7451364007766426E+00    1.0112259039438898E+01
O    8.2294601157653595E+00    2.6812394310025756E+00    1.3316170563269747E+01
H    8.5456412505750521E+00    2.2745984591855026E+00    1.2410824604133046E+01
H    8.7463492489056538E+00    2.1613880199081055E+00    1.4086987451244209E+01
O    5.1882986688161861E+00    2.9300375907573013E+00    1.5877560984718269E+01
H    5.3094380607961131E+00    2.1996950998801004E+00    1.5234417413273798E+01
H    4.9182181833989365E+00    2.4657504235563787E+00    1.6809035583674554E+01
O    3.3980915342024232E+00    4.9813955475376215E+00    1.6425630210552036E+01
H    4.0031238435917604E+00    4.3402513216634260E+00    1.5879985221319261E+01
H    3.3752882036372132E+00    5.8053481560831841E+00    1.5943625863830549E+01
O    8.9540873291062724E+00    9.9284465467302123E+00    1.9231903994162927E+01
H    8.3052182921293571E+00    4.7087484467990798E-01    1.8970328990807030E+01
H    9.4401166263048779E+00    1.0079490719724848E+01    2.0051814965039569E+01
O    5.8140801072767099E+00    6.2242183310459795E+00    2.1919498229584434E+01
H    5.7727329608163807E+00    7.1170793138666060E+00    2.1532613917394340E+01
H    5.8916070269530767E+00    6.3110657470150207E+00    2.2899107093758282E+01
O   -2.6793304305958932E-01    7.9967446880814368E+00    9.2705399462786744E+00
H    4.6872574366590930E-01    7.7973313325275271E+00    9.9174004838063201E+00
H    9.4026658233412466E+00    8.5170417969814558E+00    9.9857516211591086E+00
O    9.7474766199549041E+00    4.6828592921142338E+00    1.5489936811791024E+01
H    9.3568476052848570E+00    5.1508228948292460E+00    1.4663354465637704E+01
H    8.9361012585802868E+00    4.2564686465975550E+00    1.5886339243214064E+01
O    3.1382006414093526E+00    2.8016093756757199E+00    1.0816245212607360E+01
H    2.8032732008153562E+00    1.9151837377146999E+00    1.0610517495325828E+01
H    4.0465771050375174E+00    2.8361111245458424E+00    1.0468614126343327E+01
O    8.7190808147759498E+00    3.3171503989421471E+00    7.1510896778943209E+00
H    9.0843209117794732E+00    3.2792969524284397E+00    6.2153179854107030E+00
H    8.3953237266049143E+00    2.3652976404839765E+00    7.1552101106719475E+00
O    8.9468550948786270E+00    7.3559286543344493E+00    1.9439645400612115E+01
H    9.6339153148665879E+00    6.9429517347746215E+00    1.8835272550140903E+01
H    8.9281910993003475E+00    8.3287205838325722E+00    1.9137002125866179E+01
O    9.7313937276025730E-01    1.6457906882590041E+00    2.0334743209269430E+01
H    1.2335357589486384E+00    2.6094303279612543E+00    2.0326230070272203E+01
H    3.1093330146531845E-01    1.4240737319451606E+00    2.1044756245866481E+01
O    5.5583960590717361E+00    2.7505365930230408E+00    9.6828438906685292E+00
H    5.2514919756472720E+00    3.3303736959072272E+00    8.8646508930266439E+00
H    6.0101323594116556E+00    3.3124658807506382E+00    1.0352516413990351E+01
O    2.9688607314889452E+00    2.2934578293443706E+00    6.5049082911244875E+00
H    3.8870109452420203E+00    2.8537795335339267E+00    6.7684301034593135E+00
H    3.2193577268699025E+00    1.3699268703818326E+00    6.6983295939461271E+00
O    4.0842307038256234E+00    8.8222042221657571E+00    2.2756398872516851E+01
H    4.0260053800102957E+00    9.7033363900564833E+00    2.2279583851763149E+01
H    3.3480767944155176E+00    8.2260644150849735E+00    2.2384987332161053E+01
O    4.9482102732097228E+00    8.3000648472846486E+00    1.3472891051357012E+01
H    4.7112656509615372E+00    8.8137711253395548E+00    1.4326694546179734E+01
H    4.5577505724988061E+00    8.8672370488068086E+00    1.2739520708907166E+01
K    8.6338030863520903E+00    6.2599104864243689E+00    7.6329775940790094E+00
O    6.5014647495219446E-01    4.1519988993509410E-01    1.3125408765012514E+01
H    1.6061544841996539E-01    7.7080449274859930E-01    1.3876220489523401E+01
H    8.9967402797136609E-01    1.1615901839168172E+00    1.2541047187680148E+01
O    8.2432888616866329E+00    7.7914012234711834E+00    1.6045125342770266E+01
H    9.0069031525426375E+00    8.1726281708537947E+00    1.6443783304699078E+01
H    8.3777343190262989E+00    6.7650664012909791E+00    1.6053051546725591E+01
O    1.8978444311625793E+00    7.3885152734604729E+00    2.1799130651902132E+01
H    8.3345151790374339E-01    7.3337239916511079E+00    2.1903191630027408E+01
H    2.2163519654336863E+00    6.4530610992998332E+00    2.2079566938246607E+01
O    4.4097368471018275E+00    9.1965526209963429E+00    1.5892054516167180E+01
H    4.1596061799153548E+00    1.0168634698351571E+01    1.5589128115751551E+01
H    5.0783822006963595E+00    9.1192070138772774E+00    1.6647009006478754E+01
O    1.5091225897654246E+00    6.8755506206833805E-01    1.0250381152768773E+01
H    1.3724038248636148E+00    1.1708617979388551E+00    9.4080353627428597E+00
H    1.6260138900532164E+00    9.9472563280827764E+00    1.0038787217019822E+01
O    1.0181770053272036E+01    6.1501666716942376E+00    1.3205129126374741E+01
H    5.4644189004567989E-01    5.4355848987117614E+00    1.2824869035480701E+01
H    9.4318967714748343E+00    6.2766181724600321E+00    1.2545565985347578E+01
O    3.9256697796008655E-01    9.1030584245772417E+00    7.0745445210035838E+00
H    2.0631393005605586E-01   -1.1704128426666233E-01    7.2762413880185948E+00
H    2.4120084150286911E-01    8.7761450909276952E+00    7.9946206925963184E+00
O    8.2180033700087822E+00    8.7555337713735018E+00    6.2084529571064335E+00
H    7.5924771838555483E+00    9.3110082231035385E+00    6.7408836642857830E+00
H    9.1912255705037342E+00    9.0207820602829845E+00    6.5446048012000393E+00
O    3.1773436668627797E+00    8.2444440565321635E+00    1.9702581061984343E+01
H    3.5678385574587734E+00    7.5405042795346819E+00    1.9110960165345031E+01
H    2.7371639988194261E+00    7.8383252407615025E+00    2.0527487228312374E+01
K    7.5148029037324617E+00    3.6763021442957298E+00    2.1630298469852217E+01
O    4.8854868283399240E+00    3.3071030701145210E+00    2.0711581361354295E+01
H    4.2415808150904297E+00    3.9743729189220756E+00    2.1112732298892016E+01
H    4.6055338190672783E+00    2.4608872133868225E+00    2.1232718584760978E+01
O    5.5737883116067817E+00    5.6791274685339372E+00    7.5137752274473542E+00
O    5.1564253111752159E+00    3.4624427380770917E+00    7.2486065437740219E+00
     &END COORD
     &VELOCITY
          -8.0610910310561023E-06   -5.0636987305295842E-05   -1.1026602032019827E-04
          -4.1383929292688780E-05    1.0545927566157944E-05   -3.7278556030260291E-05
           1.1373684459988036E-05   -5.8047560902859263E-05    8.4262450397053421E-05
          -1.5389139224603549E-06    1.4087511812326743E-04    1.4779070727313582E-05
          -4.7475716289104570E-05   -6.6594479854394304E-05   -6.3501521801103750E-05
          -5.2076285630092889E-05   -5.6034995062276797E-05   -2.4387552542275272E-05
           2.5209904156517073E-04    4.5170455317264784E-05   -4.7232008021338006E-05
           2.0626323952707130E-05   -3.7534909461846114E-05    3.6656615667351467E-05
          -3.6297818787024138E-05   -2.8329143932492731E-05    2.4991661968219276E-05
           1.1102097696538869E-05   -1.3350763396632879E-05   -3.5350192378019207E-05
           6.5328928637283832E-05   -2.4353202452541770E-05    6.7448387595704320E-05
           1.6119144091164218E-05   -1.7550474733973975E-04   -2.1651977267136491E-04
          -3.4793214684447923E-05    1.0957713606418594E-04   -1.5021370593567575E-05
          -2.0728594317919194E-05    6.1661714725174543E-05    1.3487317838485307E-04
           4.7631883752221806E-05   -6.2879457764299250E-05   -3.6518998794547203E-05
          -3.7307347990366544E-05    8.0701933438322065E-05   -7.4297442184670848E-05
           1.0414228855353265E-04    1.0098180570031533E-05    1.0456936382256846E-04
          -1.1331421738989521E-04    3.4040551032262943E-05   -1.5083674499299186E-04
           3.0042008273633966E-05    6.4285570279429757E-05   -3.4822938949573115E-05
           4.5333604272272583E-06   -1.4896645684051729E-04    4.4794089108904519E-05
          -7.3425303447879369E-05    7.4974927636165288E-05   -4.6995084289401772E-05
           2.6296068393564318E-05   -1.0550477283787323E-04   -1.0619918279120832E-04
           5.3561306532479688E-05   -3.2326726477251256E-05    1.4437897260615839E-04
           3.3246526481028092E-05    9.1091247366197539E-05   -5.7280593753744783E-06
          -8.0953700081877339E-05   -4.6779210890817830E-05   -7.1591838150320943E-05
          -9.1779973995298358E-05    2.0442677086370754E-05    7.3440768507844061E-06
          -9.0412418456882617E-05    1.1756440016925555E-04   -7.9809566948842820E-05
          -8.4777435508583208E-05    1.0350065015181914E-04   -1.4927760634788392E-04
          -2.1578009400320360E-04    9.4335580771014665E-05    1.4309483260965301E-04
          -5.1945487974410728E-05    1.8752738011851504E-05    7.6188353064417393E-05
          -4.9963137506297821E-05   -1.4563871037771340E-04    2.4210502150652457E-05
          -5.6214966151543928E-05    1.7472448818488105E-04    2.2394925591310055E-05