 # Version information for this restart file 
 # current date 2026-02-25 18:17:14.709
 # current working dir /home/shaofl/projects/03_CuAg_SAA/explicit/1K/co2_to_cooh/from_ad_h2o/sg2
 # Program compiled at                              Wed Jun 16 17:08:34 CST 2021
 # Program compiled on                                                       mgr
 # Program compiled for                                       Linux-x86-64-intel
 # Source code revision number                                       git:e635599
 &GLOBAL
   PRINT_LEVEL  LOW
   PROJECT_NAME slowgrowth
   RUN_TYPE  MD
 &END GLOBAL
 &MOTION
   &MD
     ENSEMBLE  NVT
     STEPS  8000
     TIMESTEP     9.9999999999999989E-01
     STEP_START_VAL  4500
     TIME_START_VAL     4.4999999999996371E+03
     ECONS_START_VAL    -4.3014588840744354E+03
     TEMPERATURE     3.0014999999999998E+02
     &THERMOSTAT
       TYPE  NOSE
       REGION  GLOBAL
       &NOSE
         LENGTH  3
         TIMECON     2.2237606346543473E+01
         &COORD
               3.0876614770750821E-01    1.1976317366172378E+01   -2.4408187578057770E+00
         &END COORD
         &VELOCITY
               2.8246727982467009E-05    5.5950454884977406E-04    5.6283214476983195E-04
         &END VELOCITY
         &MASS
               6.4750332819943212E+05    8.0335400521021347E+02    8.0335400521021347E+02
         &END MASS
         &FORCE
              -1.6332301117005753E-08   -5.4009962478157809E-07   -8.7014366382066961E-07
         &END FORCE
       &END NOSE
     &END THERMOSTAT
     &AVERAGES  T
       &RESTART_AVERAGES
         ITIMES_START  1
         AVECPU     1.8117482189796874E+01
         AVEHUGONIOT     0.0000000000000000E+00
         AVETEMP_BARO     0.0000000000000000E+00
         AVEPOT    -4.3018867652156241E+03
         AVEKIN     3.8458917393340514E-01
         AVETEMP     3.0134866249653970E+02
         AVEKIN_QM     0.0000000000000000E+00
         AVETEMP_QM     0.0000000000000000E+00
         AVEVOL     1.8637835790266090E+04
         AVECELL_A     1.9320371010009630E+01
         AVECELL_B     1.9320371010009630E+01
         AVECELL_C     4.9930343883104655E+01
         AVEALPHA     9.0000000000000000E+01
         AVEBETA     9.0000000000000000E+01
         AVEGAMMA     9.0000000000000000E+01
         AVE_ECONS     7.9475237839024260E+01
         AVE_PRESS     0.0000000000000000E+00
         AVE_PXX     0.0000000000000000E+00
       &END RESTART_AVERAGES
     &END AVERAGES
     &PRINT
       &ENERGY  SILENT
       &END ENERGY
     &END PRINT
   &END MD
   &CONSTRAINT
     &COLLECTIVE
       COLVAR  1
       INTERMOLECULAR  T
       TARGET    -6.0471236252333194E-01
       TARGET_GROWTH    -9.1420578484471594E-06
     &END COLLECTIVE
     &LAGRANGE_MULTIPLIERS  SILENT
       COMMON_ITERATION_LEVELS  1
       FILENAME constraint_force.dat
     &END LAGRANGE_MULTIPLIERS
   &END CONSTRAINT
   &PRINT
     &TRAJECTORY  SILENT
       &EACH
         MD  5
       &END EACH
     &END TRAJECTORY
     &VELOCITIES  SILENT
       &EACH
         MD  5
       &END EACH
     &END VELOCITIES
     &RESTART  SILENT
       &EACH
         MD  10
       &END EACH
     &END RESTART
   &END PRINT
 &END MOTION
 &FORCE_EVAL
   METHOD  QS
   &DFT
     BASIS_SET_FILE_NAME BASIS_MOLOPT
     POTENTIAL_FILE_NAME GTH_POTENTIALS
     WFN_RESTART_FILE_NAME ./1-RESTART.wfn
     UKS  T
     CHARGE  0
     &SCF
       MAX_SCF  60
       EPS_SCF     1.0000000000000001E-05
       SCF_GUESS  ATOMIC
       &OT  T
         MINIMIZER  BROYDEN
         BROYDEN_BETA     9.0000000000000002E-01
         BROYDEN_SIGMA     1.0000000000000001E-01
         LINESEARCH  2PNT
         PRECONDITIONER  FULL_ALL
       &END OT
       &OUTER_SCF  T
         EPS_SCF     1.0000000000000001E-05
         MAX_SCF  50
       &END OUTER_SCF
       &PRINT
         &RESTART_HISTORY  SILENT
           ADD_LAST  NUMERIC
           FILENAME = MD_RESTART_HISTORY.wfn
           BACKUP_COPIES  5
           &EACH
           &END EACH
         &END RESTART_HISTORY
       &END PRINT
     &END SCF
     &QS
       EPS_DEFAULT     9.9999999999999998E-13
       EPS_PGF_ORB     9.9999999999999995E-07
       EXTRAPOLATION  ASPC
       EXTRAPOLATION_ORDER  2
     &END QS
     &MGRID
       NGRIDS  5
       CUTOFF     4.5000000000000000E+02
       REL_CUTOFF     6.0000000000000000E+01
     &END MGRID
     &XC
       DENSITY_CUTOFF     1.0000000000000000E-10
       GRADIENT_CUTOFF     1.0000000000000000E-10
       TAU_CUTOFF     1.0000000000000000E-10
       &XC_GRID
         XC_SMOOTH_RHO  NN10
         XC_DERIV  NN10_SMOOTH
       &END XC_GRID
       &XC_FUNCTIONAL  NO_SHORTCUT
         &PBE  T
         &END PBE
       &END XC_FUNCTIONAL
       &VDW_POTENTIAL
         POTENTIAL_TYPE  PAIR_POTENTIAL
         &PAIR_POTENTIAL
           R_CUTOFF     1.0000000000000002E+01
           TYPE  DFTD3
           PARAMETER_FILE_NAME dftd3.dat
           REFERENCE_FUNCTIONAL PBE
         &END PAIR_POTENTIAL
       &END VDW_POTENTIAL
     &END XC
     &PRINT
       &MULLIKEN  SILENT
         FILENAME =CHARGE.mulliken
         &EACH
           MD  5
         &END EACH
       &END MULLIKEN
     &END PRINT
   &END DFT
   &SUBSYS
     &CELL
       A     1.0223900000000002E+01    0.0000000000000000E+00    0.0000000000000000E+00
       B     0.0000000000000000E+00    1.0223900000000002E+01    0.0000000000000000E+00
       C     0.0000000000000000E+00    0.0000000000000000E+00    2.6422000000000001E+01
       PERIODIC  XYZ
       MULTIPLE_UNIT_CELL  1 1 1
     &END CELL
     &COORD
Cu    5.3060235962669788E-01    9.6685185590860350E+00    2.8664886630075465E-01
Cu    2.9916500009658415E+00    1.8821503009808132E+00    3.4957873142589396E-01
Cu    3.5632717620549359E-01    9.6465331828414662E+00    3.7958540889860446E+00
Cu    2.9346421382255481E+00    1.9197214868684169E+00    3.9656685429147500E+00
Cu    2.9288241536939363E+00    9.5807545829790186E+00    3.3298633937847943E-01
Cu    4.4040291123737502E-01    2.0032258335821602E+00    3.1289318592750398E-01
Cu    2.7684948303064227E+00    9.5424497603977390E+00    3.8462189047264976E+00
Cu    4.3036267312125376E-01    1.9522942025191892E+00    3.9831317976520855E+00
Cu    4.2609445118995239E+00    5.8228170432406656E-01    2.5052606612452703E+01
Cu    1.6184107426619405E+00    3.3128545053281395E+00    2.5062506510567463E+01
Cu    4.1914263845396347E+00    6.8399125634159341E-01    2.1486510895834243E+00
Cu    1.7219568545977422E+00    3.3018073785255959E+00    2.1845471440482251E+00
Cu    1.7531444726441621E+00    6.9810716953198271E-01    2.4861699564797537E+01
Ag    4.3293281102358820E+00    3.0414249182112858E+00    2.4576038734065200E+01
Cu    1.7446172370931847E+00    6.8810977048900601E-01    2.1322541776374684E+00
Cu    4.1864623360593498E+00    3.2694069067488312E+00    2.2641630529562882E+00
Cu    5.5024673530451906E+00    9.4987597665585763E+00    3.6752223526284461E-01
Cu    8.0992431351640697E+00    2.0063139904170435E+00    3.6233434285640564E-01
Cu    5.5941139996575542E+00    9.5786847741084529E+00    3.7786926219338586E+00
Cu    7.9637658845416297E+00    2.0712992292181465E+00    4.0036000055324878E+00
Cu    7.9886314386766726E+00    9.6968717971970761E+00    4.8877442614919786E-01
Cu    5.4771881997450267E+00    1.8965083281471764E+00    3.1667364247871066E-01
Cu    8.0495530738138683E+00    9.6242053824286273E+00    3.9771618550004928E+00
Cu    5.5026108127351847E+00    1.8597331367529089E+00    4.0146992291652843E+00
Cu    9.4783422137578217E+00    7.2754129028507508E-01    2.4936222612920325E+01
Cu    6.9264014128047586E+00    3.3934358829604547E+00    2.4978577509722360E+01
Cu    9.3621557384815866E+00    6.1571726189659937E-01    2.2248251303381648E+00
Cu    6.8654689132134719E+00    3.2310424053674165E+00    2.1730106366341571E+00
Cu    6.8338824573113035E+00    7.3175260002103681E-01    2.5120597744808887E+01
Cu    9.3666602001616752E+00    3.2576447565020246E+00    2.4913734303359693E+01
Cu    6.7983718900212269E+00    7.3890510065995729E-01    2.2193750632617357E+00
Cu    9.3950564169296662E+00    3.1660552731051483E+00    2.2235134551035882E+00
Cu    3.7797384366935510E-01    4.5126671889336727E+00    3.2518243335710156E-01
Cu    3.0321941781122259E+00    7.0318016130620737E+00    2.6956045239289983E-01
Cu    4.5130289901198989E-01    4.5828833276038896E+00    3.9512371877001704E+00
Cu    2.9224194175737863E+00    7.1022623818603110E+00    3.8645742071951177E+00
Cu    2.9600023162283486E+00    4.4627759188341161E+00    2.4009841392640258E-01
Cu    4.5742053699246027E-01    7.0381018278186458E+00    3.2775844438114227E-01
Cu    2.8982795741125233E+00    4.5286450257746260E+00    4.1122333075294479E+00
Cu    4.1828326870246579E-01    7.1227737886437845E+00    3.7917153399479369E+00
Cu    4.2566571576176662E+00    5.7470510591436401E+00    2.4872963330935299E+01
Cu    1.7977031793763742E+00    8.4529798209416693E+00    2.4879053375036808E+01
Cu    4.2609822579699435E+00    5.7735256982251997E+00    2.1395042661619810E+00
Cu    1.5731232074913317E+00    8.3441823168169567E+00    2.0613306843496284E+00
Cu    1.6621651758869103E+00    5.8407237168790651E+00    2.4904621950877207E+01
Cu    4.3076670918721147E+00    8.3326203572059576E+00    2.5046130823068104E+01
Cu    1.7987286300623067E+00    5.7719314006800015E+00    2.1741476835328108E+00
Cu    4.1751270234719877E+00    8.2577133152899158E+00    2.1871571044058364E+00
Cu    5.5948030739316037E+00    4.4823979582149214E+00    3.2329907819395254E-01
Cu    8.0305113148286669E+00    6.9902419052344671E+00    4.0165963543541522E-01
Ag    5.4696511988825707E+00    4.6089411406653227E+00    4.3460395272141481E+00
Cu    7.9951587431757538E+00    6.9943850599308934E+00    3.7983609803706022E+00
Cu    8.1065335957375808E+00    4.4800571064152850E+00    3.1230458262148064E-01
Cu    5.5797841735972575E+00    6.9849117044812221E+00    2.7103092529134482E-01
Cu    8.2387365597705813E+00    4.5288991276833981E+00    3.9146614152637058E+00
Cu    5.5031198569524129E+00    7.2153112393721841E+00    4.0245342905191563E+00
Cu    9.3827140926359753E+00    5.7731744714802966E+00    2.4973252308138385E+01
Cu    6.8980230830818057E+00    8.4381740763725954E+00    2.5130934310239809E+01
Cu    9.4000437474797991E+00    5.7378102360347985E+00    2.1637953472172571E+00
Cu    6.7554159634988329E+00    8.2935920071013669E+00    2.1214575141437169E+00
Cu    6.8771423642909921E+00    5.8436072853737908E+00    2.5000109460649277E+01
Cu    9.3535893407668027E+00    8.3160167593418794E+00    2.5155083790523594E+01
Cu    6.7747101196230899E+00    5.6516934012909328E+00    2.1865920458843422E+00
Cu    9.2891457286604862E+00    8.3240538918996272E+00    2.0629211133200718E+00
O    1.3236461044471579E+00    2.3537351923657117E+00    6.7891385423076889E+00
H    1.0726850644563825E+01    2.8881081533395832E+00    6.8126903447584786E+00
H    1.7602810632040580E+00    2.8174084349478052E+00    6.0040281952524035E+00
O    7.0516917350958783E+00    1.1698233713321915E+01    7.0402002542722935E+00
H    6.7633654100566485E+00    1.5496105348336768E+00    8.0939810830383454E+00
H    6.1687868135118524E+00    1.4335766704832011E+00    6.5535071838778540E+00
O    2.6749762119781932E+00    7.9079612238740726E-01    1.8010795514492742E+01
H    2.4474477350289665E+00    1.5356075506682849E+00    1.8663076862868159E+01
H    3.0301396594629955E+00    1.0258583035247153E+01    1.8512018872346857E+01
O    2.4506312348012909E+00    5.2860390882858344E+00    8.6320750974935105E+00
H    2.8516708274629385E+00    4.5360920607253439E+00    8.1728479116321928E+00
H    2.1134205462667719E+00    5.8349156890959639E+00    7.9045002020734483E+00
O    1.1659427939141334E+00    6.6839138791565222E+00    6.6770148902383557E+00
H    1.2954728460825751E+00    7.6708693440405336E+00    6.5098234231072150E+00
H    1.2565913919262623E+00    6.2353844952855439E+00    5.7819786340326047E+00
O    2.3173918926251900E+00    5.1814981133853708E+00    1.2886666662475287E+01
H    2.6287634940491893E+00    4.5986764857296913E+00    1.2094547122753880E+01
H    2.3033155649129564E+00    4.5879687730088090E+00    1.3737274011179860E+01
O    1.1709737000002536E+00    6.8090123744637649E+00    1.7397321620131564E+01
H    4.0833887713596762E-01    6.8160468496418805E+00    1.6711437144968109E+01
H    1.9564402803994880E+00    7.1542732535781939E+00    1.6929223855208669E+01
O    7.6882429635520539E+00    2.3618544342002203E+00    2.1881965697613971E+01
H    7.2987222199695898E+00    1.1931971035366649E+01    2.1304737215588201E+01
H    7.4467655623496629E+00    2.0836882100757408E+00    2.2750269118189724E+01
O    7.4048273073140738E+00    6.4504341336679447E+00    1.8896298743652082E+01
H    8.2027727382389575E+00    6.9944409598250656E+00    1.8943959936496192E+01
H    6.9301431611295241E+00    6.9461467246375301E+00    1.8219585059479982E+01
O    1.9231566824460420E+00    9.0036576784745996E+00    1.3098544070289257E+01
H    1.1810340748828543E+00    8.3483229216323664E+00    1.3026581817352014E+01
H    1.5153427181878749E+00    9.8502103957737255E+00    1.3290442202706171E+01
O    8.5320042493121555E+00    4.8322489678326912E+00    1.6844595015060410E+01
H    7.7861356315043899E+00    4.4696402171919658E+00    1.6409188088517183E+01
H    8.1270721934913954E+00    5.3938314441566924E+00    1.7561510011329169E+01
O    1.0475821934706664E+01    1.2426570597168910E+01    2.1704127214334637E+01
H    7.5054520336644748E-01    1.2246012771235053E+01    2.2541618880958428E+01
H    9.5011910991227975E+00    2.2148950231821787E+00    2.1880146242938412E+01
O    4.3689551829633055E+00    6.5533993770373895E+00    1.8735288218037113E+01
H    3.6234178052236783E+00    6.1155382006524839E+00    1.9236937084470199E+01
H    4.4184555356407653E+00    6.1295954967183945E+00    1.7808609539335318E+01
O    4.4253213985769539E+00    6.9083330554794706E+00    1.2386004875705289E+01
H    3.5999057693127900E+00    6.4857791425197640E+00    1.2747761435527337E+01
H    4.6378644540169365E+00    7.7980255125405789E+00    1.2814022171740316E+01
O    3.1900174015177036E+00    8.1767240135939989E+00    1.5450231273480563E+01
H    2.5721083364962607E+00    8.3063794308741059E+00    1.4697669149923568E+01
H    3.6504724754913442E+00    9.0104343379979905E+00    1.5600379776298476E+01
O    6.7764658751116711E+00    5.5911546617048975E+00    1.2140315490268566E+01
H    5.9107823079826831E+00    5.9764242635608378E+00    1.2445409199712039E+01
H    7.2442764460986391E+00    5.3010259158775419E+00    1.2913699957135650E+01
O    6.9518423099223412E+00    9.3848129366522102E+00    1.7509868363419983E+01
H    7.1220211859914651E+00    9.8433276428824250E+00    1.8353615509560129E+01
H    7.7860970606288236E+00    9.5384659112893573E+00    1.6861718537956349E+01
O    2.2999873261796790E+00    9.0124656167895374E+00    1.0429495994537417E+01
H    2.9192119728221173E+00    8.3673589588206152E+00    9.9988474719937095E+00
H    2.3298384799487275E+00    8.8598455413140051E+00    1.1455911039042958E+01
C    5.2611124022451161E+00    4.6268676386159573E+00    6.5187119195942218E+00
O    3.9262604131068732E+00    2.2776072843279831E+00    1.3300735005692218E+01
H    4.9593850955853824E+00    2.2056132318436550E+00    1.3435286360775255E+01
H    3.9424912849459584E+00    2.8337552092118261E+00    1.2467176131938128E+01
O    8.8102130460761092E+00    1.1003074140778615E+01    1.0566846785639864E+01
H    8.6640515108586147E+00    1.0537645079529762E+01    1.1442715781395355E+01
H    9.1874560297914662E+00    1.6495961338055767E+00    1.0798757396460827E+01
O    3.8631398547504872E+00    2.9607218459051325E+00    2.1586471390355594E+01
H    3.5480924748379117E+00    3.4881157914936951E+00    2.2362701321573979E+01
H    3.1438391239595216E+00    2.8018756227194319E+00    2.0897278799255446E+01
O    9.6341203967535343E+00    8.8502975981872716E+00    2.2176334056757259E+01
H    9.8724506602156925E+00    9.2028072300941446E+00    2.3067236226294163E+01
H    8.7647632125723813E+00    8.4283406069483995E+00    2.2259544215541691E+01
O    1.4313239284666071E-01    2.9355542538892849E+00    1.5213204431095486E+01
H    1.0153188052308340E+00    3.3578482117121657E+00    1.5387178290311521E+01
H    1.0070723500509494E-01    2.1816382381660628E+00    1.5930918392286793E+01
O    8.8315382074826356E+00    6.7382729393938359E+00    1.0995729885105989E+01
H    7.9666665785524700E+00    6.2881458109354647E+00    1.1297215204865806E+01
H    8.4217939071361965E+00    7.5095790176055157E+00    1.0567379491248603E+01
O    2.6243098693851281E+00    3.7545028890290966E+00    1.5201484274489522E+01
H    3.1662201201618054E+00    4.4596246974855260E+00    1.5599081678826488E+01
H    3.2705756276249640E+00    3.1859025178834255E+00    1.4663561176723436E+01
O    4.0091148022972272E+00    6.6310801118592524E+00    2.1780272492672520E+01
H    3.8157230485812428E+00    6.4883835498890345E+00    2.2754080381140493E+01
H    4.9256912842303189E+00    7.0105878450636823E+00    2.1763829033941146E+01
O    2.1777598272050844E+00    5.4225462387060546E+00    1.9447915134427124E+01
H    1.6707776988948233E+00    5.7175583931777529E+00    2.0290374832099861E+01
H    1.7471727093531710E+00    5.9022823625283536E+00    1.8689216201551123E+01
O    4.8110908984362482E+00    1.0602196545559464E+01    1.0807359229138184E+01
H    5.2994930007038361E+00    1.1140169892172069E+00    1.0279456274388933E+01
H    3.9129216924352419E+00    1.0335584333175618E+01    1.0614978715353732E+01
O    5.3859292943783066E+00    2.7935819451601946E+00    1.8140871177493278E+01
H    4.6158775686916735E+00    2.2420330686508518E+00    1.8046975549677104E+01
H    5.5192052890376182E+00    3.3650954595635536E+00    1.9004197962172565E+01
O    3.9283116806843013E+00    9.7816973771981441E+00    7.4051367623499864E+00
H    4.5341679056984230E+00    9.0983383980393100E+00    7.0360144179460606E+00
H    4.1507829455434475E+00    1.0096307330049530E+01    8.3085108551226483E+00
O    6.6957521635103516E+00    2.2491931211055252E+00    1.3538187970226531E+01
H    7.4377132009896334E+00    2.9226125729535100E+00    1.3637720195267159E+01
H    7.1630260165905142E+00    1.4055200835994746E+00    1.3629712703587897E+01
O    6.5647634023143242E+00    1.8464902343142653E+00    9.4221895260633577E+00
H    7.4553334265039659E+00    1.1627255445444606E+01    9.6894443898232936E+00
H    6.5997370760100287E+00    2.9121297944612721E+00    9.4567111624509632E+00
O    8.0666943720767712E+00    1.0002548506774806E+01    1.3083560994161422E+01
H    7.1750332587235137E+00    9.5772373755113200E+00    1.3040313339530188E+01
H    8.2584387276932798E+00    9.6511979852553722E+00    1.3914718358041025E+01
O    5.6859593182654953E+00    7.8465958176407309E+00    6.0538670184092691E+00
H    6.6270228076628648E+00    8.2893580475442104E+00    6.2958607990338269E+00
H    5.5599491008752970E+00    7.0334752618717404E+00    6.5593192927871620E+00
O    1.0279571183983954E+01    4.8103477999765936E+00    9.7256643812220762E+00
H    1.0100324937258609E+00    4.9739376647203635E+00    9.5471299592526524E+00
H    9.8500142345605539E+00    5.6268722854541799E+00    1.0019128921457115E+01
O    6.2285419308797234E+00    9.7295050540000041E+00    2.0721324101049600E+01
H    5.4662730946356684E+00    9.5183718268349544E+00    2.0041504168534352E+01
H    5.6428725484335374E+00    1.0087440155549629E+01    2.1384009919001503E+01
O    3.6997318402941198E-01    1.0789558329535087E+01    1.6903101934032776E+01
H    1.2917690084095337E+00    1.0848369730231321E+01    1.7280342834339830E+01
H   -1.2950889389080936E-01    1.0961557928648096E+01    1.7743827693967017E+01
O    8.3151125373717836E+00    2.9246520057956245E+00    1.8929456846514007E+01
H    7.4423583133607227E+00    2.5674995789272224E+00    1.8787393042929207E+01
H    8.5346597638109145E+00    3.5267293356544744E+00    1.8158539228699702E+01
O    9.8727661909903741E+00    3.0485074249283763E+00    1.1604995447025352E+01
H    1.0672390933140075E+01    2.6253472047762698E+00    1.2082360424770508E+01
H    1.0142511071791546E+01    3.6446076244838976E+00    1.0936045449429162E+01
O    6.7099459866648958E-01    6.3945328195178730E+00    2.1578458302910953E+01
H    9.6156490264613526E-01    6.0214773236499459E+00    2.2410463522529810E+01
H    3.5542555276820459E-01    7.2677266341322975E+00    2.1840509842884348E+01
O    4.2235608032786169E+00    7.2177606311395106E+00    9.6502038951605105E+00
H    3.8249917663910202E+00    6.3805959684288354E+00    9.2922584311305876E+00
H    4.5179775614991176E+00    6.9083410144078741E+00    1.0557983538376394E+01
O    7.0168045549739624E+00    8.0127948496905343E+00    9.0778344730259786E+00
H    6.0059194214155109E+00    7.9605620312574326E+00    9.1462759836926590E+00
H    7.1293569435554884E+00    9.0106923566326369E+00    9.1816890859235762E+00
O    8.5931382780827033E+00    4.2933749123852865E+00    1.3662803134267515E+01
H    9.0194244645813022E+00    4.0664499497877999E+00    1.2824889778771302E+01
H    9.1748521401973342E+00    3.7639453122865958E+00    1.4333423647026414E+01
O    6.2983897618860514E+00    3.8153933324370288E+00    1.5823271032409371E+01
H    6.2291702810042713E+00    3.1179503720173050E+00    1.5138648554705137E+01
H    5.9514458364819758E+00    3.4199941627500965E+00    1.6687001922836338E+01
O    4.2943332035108330E+00    5.6476551706866776E+00    1.6061625826604676E+01
H    5.1179368790517303E+00    5.3176259203640273E+00    1.5662923631633605E+01
H    4.0165152441791792E+00    6.5185152513067193E+00    1.5637787322057347E+01
O    9.4361821370486076E+00    1.0648973367369511E+01    1.9651038229297288E+01
H    9.0450603455957541E+00    1.2660477129057190E+00    1.9495722559209664E+01
H    9.4353467550774273E+00    1.0534486811339251E+01    2.0639439616428334E+01
O    7.2861058908868381E+00    7.6219774129144895E+00    2.1988831660620921E+01
H    6.9963923145627680E+00    8.3882637672241440E+00    2.1404415169264148E+01
H    6.8037308659523070E+00    7.7005907761005012E+00    2.2830657793209880E+01
O   -6.8286889237904241E-02    9.1614600215477466E+00    9.1801493144191770E+00
H    7.9611961836670586E-01    8.9051340105006087E+00    9.5358603352548510E+00
H    9.8174474339127844E+00    9.9871308860719967E+00    9.7112670567946537E+00
O    9.7504988791391316E+00    6.7814800621209663E+00    1.5386988748180373E+01
H    1.0017249415190246E+01    6.7408939399561678E+00    1.4457288896660236E+01
H    9.1708773176366432E+00    6.0130034502963392E+00    1.5574884027186650E+01
O    3.3476352124251378E+00    3.4077652455626812E+00    1.0851846655900033E+01
H    2.9145911963853002E+00    2.6131644267589555E+00    1.0442872901702710E+01
H    4.1953121748065323E+00    3.5184109502069476E+00    1.0359066304470614E+01
O    8.8925998367769417E+00    3.4402202031441482E+00    6.7412094519530354E+00
H    9.0244929192794032E+00    3.5004315974626414E+00    5.7520021337221223E+00
H    8.3323185851643871E+00    2.6013972141065342E+00    6.7345202982015575E+00
O    9.5391575913868056E+00    7.9680455018197573E+00    1.9009127028751603E+01
H    1.0269597738064956E+01    7.7950496405277159E+00    1.8369976627214019E+01
H    9.5421575893968757E+00    8.9921068230831160E+00    1.9092005653875692E+01
O    1.9165823977944312E+00    2.7757756712798161E+00    1.9780919101798300E+01
H    1.9675796964626524E+00    3.8602468881523295E+00    1.9666993468861122E+01
H    1.1830121720183537E+00    2.6974014569240743E+00    2.0430665269495655E+01
O    6.0766284177487284E+00    4.2548632074973538E+00    9.6456131178147722E+00
H    5.8855953592684687E+00    4.8834767325317312E+00    8.7994728859081288E+00
H    6.4958879930968596E+00    4.7266616566407107E+00    1.0392789971604390E+01
O    4.2326554136478478E+00    1.7667633858157430E+00    5.5760832305330759E+00
H    4.3399031354695579E+00    2.9196442913124301E+00    6.4082821336419489E+00
H    4.0742180830595700E+00    9.4748451988055982E-01    6.1107184775253174E+00
O    4.4633538483020079E+00    1.0617046903893494E+01    2.2636823217693465E+01
H    4.4201032664792486E+00    1.1536196723295561E+01    2.2319236838273856E+01
H    3.6543410219151036E+00    1.0102641689776750E+01    2.2420098718513437E+01
O    5.3864727899469980E+00    9.2206268177608415E+00    1.3091539339736212E+01
H    5.1007563816766259E+00    9.5430763868103696E+00    1.3986733575806175E+01
H    5.1470637556688636E+00    9.8770325995693344E+00    1.2356183138817116E+01
K    8.6521955780159061E+00    6.1935539905643502E+00    7.4375037772866488E+00
O    1.1522266593668871E+00    1.5805429718963149E+00    1.3241060173291352E+01
H    7.9542278368774955E-01    1.9851196999165699E+00    1.4084157110493207E+01
H    2.0897646973386679E+00    1.8747964297265651E+00    1.3336241037876270E+01
O    8.7871640912465843E+00    9.2257662254677513E+00    1.5665794088945937E+01
H    9.6646412375662294E+00    9.5448317640488938E+00    1.5939637735848702E+01
H    8.9868779069538647E+00    8.2407907577585888E+00    1.5626988933688063E+01
O    2.5050111114291354E+00    8.8358839648571870E+00    2.1620378363088065E+01
H    1.5495796728251252E+00    8.8124290036262618E+00    2.1708711729223577E+01
H    2.8245020579629068E+00    7.8893730384229963E+00    2.1724516547273208E+01
O    4.6428903340669621E+00    1.0121148154043787E+01    1.6177832733449030E+01
H    4.0526936855763411E+00    1.0665489866362071E+01    1.6777077709750944E+01
H    5.4492103501064433E+00    9.9022690410258605E+00    1.6742534835855974E+01
O    2.5559586940837642E+00    1.3207986281279012E+00    9.2638285483188376E+00
H    2.1331189094987693E+00    1.6491895007373416E+00    8.5005445867123495E+00
H    2.1221203994221147E+00    1.0769168003278715E+01    9.6723134636961259E+00
O    1.0643174312596429E+01    6.9737618291166497E+00    1.2856032788893604E+01
H    1.1187864594014221E+00    6.2296115330291659E+00    1.2733258783885901E+01
H    9.9487987771652229E+00    6.6705874479904663E+00    1.2177447520822602E+01
O    3.2451828329365684E-01    9.4772874165023975E+00    6.6058172656253422E+00
H    7.6602930376671419E-01    1.2594921445311974E-01    6.5439845544866539E+00
H    2.6288026578358747E-01    9.3504836635071769E+00    7.6779258272679085E+00
O    8.0550340654990027E+00    9.3522456221428332E+00    6.1226801638523325E+00
H    7.7255108479503196E+00    1.0239052862313521E+01    6.6182092097242879E+00
H    9.0497956365564960E+00    9.4681246468491409E+00    6.2190108427532129E+00
O    3.9494658963015543E+00    9.1613650822308088E+00    1.9348212948897778E+01
H    4.0672253584459117E+00    8.2672241688958419E+00    1.8941145055462055E+01
H    3.2438568828936178E+00    9.0692794845446887E+00    2.0025955082335077E+01
K    8.1773754022418359E+00    5.0006079338941358E+00    2.1109925864220468E+01
O    5.5991379191476165E+00    4.4754691584192052E+00    2.0161966312067495E+01
H    5.2116219399980936E+00    5.3510805483542097E+00    1.9866910613726855E+01
H    5.0089292755537826E+00    4.0417377751993726E+00    2.0861200320517593E+01
O    5.8182216530838042E+00    5.3929799271199359E+00    7.3048615736994966E+00
O    4.5110746509126241E+00    3.7269475888618047E+00    7.1444737502015423E+00
     &END COORD
     &VELOCITY
          -1.0569463415878162E-05    1.6125349211798159E-05   -8.0895727240680725E-05
          -8.9928192298963666E-06   -7.5447258977569292E-06    7.4979401170176331E-05
          -2.9219741354739485E-05    1.1593072292055764E-04   -1.1685138899425644E-04
           1.0108250965561478E-04   -3.0151605189304838E-05   -4.4805205317792963E-06
          -8.7687852902455627E-05   -5.0140152922107016E-05   -6.8030931339405442E-05
          -8.7385240495036650E-05   -1.1649740029879401E-04   -4.2881529075228078E-05
          -1.4162774277008246E-05    5.0756264867022724E-05   -8.7503338921365032E-06
           7.3087037785430397E-05   -2.4327597904306153E-06    2.0064759971718243E-05
           2.0703012118661941E-05    4.5425371752245144E-05    1.5283407436427729E-04
           9.9409437498585479E-05   -4.5474379621707847E-05   -1.0512750581271873E-04
           9.6489535781420820E-05   -6.9762855728142101E-05    5.6983100544040622E-06
           1.1748986664055282E-04   -2.0223971323698281E-05   -4.8285425079180022E-05
          -3.8626359963786364E-05   -1.6855095033966157E-05    1.9785811222201291E-04
          -2.4360337467745345E-05    4.4950391313811129E-05   -3.1003465202709955E-06
          -8.0846632764643062E-06    6.1519499731520615E-05    3.3641665168912245E-05
           1.6626337295233941E-04   -2.7694635358799521E-05    1.2465086162633042E-05
           4.7533597944040006E-05    1.2392639352708872E-04   -1.7497400626104542E-04
          -1.3190011600256496E-04   -1.5748451057674909E-04   -2.5349163361194435E-05
           1.1843992307945447E-05    8.2267123656385075E-05    7.5192833263635901E-05
          -5.8773855375673681E-05   -1.4628981859843149E-04    2.0533411170210055E-04
          -9.8879095401489578E-05    6.7382418638110085E-05    1.2354246417747115E-04
          -1.0934800525842278E-04    6.2406140896894234E-05   -4.5311855889245538E-05
          -1.1719831205518015E-05    4.4102269119053474E-06    5.1383032103153495E-06
           8.3379271272862804E-05   -9.6366172536892385E-05   -9.6913613461017199E-05
           3.6765944261805612E-05   -4.0486428672758184E-05   -6.3120351841102957E-05
          -1.3969467142760363E-05    2.0449103504552859E-06   -2.0056632335686639E-05
           2.3687583447334583E-05   -2.3197348825636634E-05   -9.0052422709244206E-05
           2.6110295782883083E-05   -3.1457903647763470E-05   -1.9147000849138474E-04
           1.2306375425321674E-04    8.5796037438880761E-05   -1.1412126523459990E-05
          -8.1981937369644795E-05   -9.3100840916740714E-05   -1.1388771594219325E-04
          -1.2235318549048995E-04   -1.6262071386303550E-05    6.9810223573194011E-06
           5.0024778546224696E-05   -1.7895878504194577E-06    5.5612898173556989E-05