 # Version information for this restart file 
 # current date 2026-02-25 08:17:20.536
 # current working dir /home/shaofl/projects/03_CuAg_SAA/explicit/1K/co2_to_cooh/from_ad_h2o/sg2
 # Program compiled at                              Wed Jun 16 17:08:34 CST 2021
 # Program compiled on                                                       mgr
 # Program compiled for                                       Linux-x86-64-intel
 # Source code revision number                                       git:e635599
 &GLOBAL
   PRINT_LEVEL  LOW
   PROJECT_NAME slowgrowth
   RUN_TYPE  MD
 &END GLOBAL
 &MOTION
   &MD
     ENSEMBLE  NVT
     STEPS  8000
     TIMESTEP     9.9999999999999989E-01
     STEP_START_VAL  2500
     TIME_START_VAL     2.4999999999998990E+03
     ECONS_START_VAL    -4.3014588840744354E+03
     TEMPERATURE     3.0014999999999998E+02
     &THERMOSTAT
       TYPE  NOSE
       REGION  GLOBAL
       &NOSE
         LENGTH  3
         TIMECON     2.2237606346543473E+01
         &COORD
               1.2451896787653738E-01    7.7306459391189710E+00    3.3141464191117027E+00
         &END COORD
         &VELOCITY
               3.9147397232004285E-05    4.2341341937812769E-04    8.1150898506438072E-04
         &END VELOCITY
         &MASS
               6.4750332819943212E+05    8.0335400521021347E+02    8.0335400521021347E+02
         &END MASS
         &FORCE
              -1.7535047182876401E-08    5.2021076288252615E-08   -1.0039100802947806E-06
         &END FORCE
       &END NOSE
     &END THERMOSTAT
     &AVERAGES  T
       &RESTART_AVERAGES
         ITIMES_START  1
         AVECPU     1.8213794048006822E+01
         AVEHUGONIOT     0.0000000000000000E+00
         AVETEMP_BARO     0.0000000000000000E+00
         AVEPOT    -4.3018837526616226E+03
         AVEKIN     3.8346709619361319E-01
         AVETEMP     3.0046944735211679E+02
         AVEKIN_QM     0.0000000000000000E+00
         AVETEMP_QM     0.0000000000000000E+00
         AVEVOL     1.8637835790266097E+04
         AVECELL_A     1.9320371010009591E+01
         AVECELL_B     1.9320371010009591E+01
         AVECELL_C     4.9930343883104676E+01
         AVEALPHA     9.0000000000000000E+01
         AVEBETA     9.0000000000000000E+01
         AVEGAMMA     9.0000000000000000E+01
         AVE_ECONS     4.4297939492207909E+01
         AVE_PRESS     0.0000000000000000E+00
         AVE_PXX     0.0000000000000000E+00
       &END RESTART_AVERAGES
     &END AVERAGES
     &PRINT
       &ENERGY  SILENT
       &END ENERGY
     &END PRINT
   &END MD
   &CONSTRAINT
     &COLLECTIVE
       COLVAR  1
       INTERMOLECULAR  T
       TARGET     1.5117809063091886E-01
       TARGET_GROWTH    -9.1420578484471594E-06
     &END COLLECTIVE
     &LAGRANGE_MULTIPLIERS  SILENT
       COMMON_ITERATION_LEVELS  1
       FILENAME constraint_force.dat
     &END LAGRANGE_MULTIPLIERS
   &END CONSTRAINT
   &PRINT
     &TRAJECTORY  SILENT
       &EACH
         MD  5
       &END EACH
     &END TRAJECTORY
     &VELOCITIES  SILENT
       &EACH
         MD  5
       &END EACH
     &END VELOCITIES
     &RESTART  SILENT
       &EACH
         MD  10
       &END EACH
     &END RESTART
   &END PRINT
 &END MOTION
 &FORCE_EVAL
   METHOD  QS
   &DFT
     BASIS_SET_FILE_NAME BASIS_MOLOPT
     POTENTIAL_FILE_NAME GTH_POTENTIALS
     WFN_RESTART_FILE_NAME ./1-RESTART.wfn
     UKS  T
     CHARGE  0
     &SCF
       MAX_SCF  60
       EPS_SCF     1.0000000000000001E-05
       SCF_GUESS  ATOMIC
       &OT  T
         MINIMIZER  BROYDEN
         BROYDEN_BETA     9.0000000000000002E-01
         BROYDEN_SIGMA     1.0000000000000001E-01
         LINESEARCH  2PNT
         PRECONDITIONER  FULL_ALL
       &END OT
       &OUTER_SCF  T
         EPS_SCF     1.0000000000000001E-05
         MAX_SCF  50
       &END OUTER_SCF
       &PRINT
         &RESTART_HISTORY  SILENT
           ADD_LAST  NUMERIC
           FILENAME = MD_RESTART_HISTORY.wfn
           BACKUP_COPIES  5
           &EACH
           &END EACH
         &END RESTART_HISTORY
       &END PRINT
     &END SCF
     &QS
       EPS_DEFAULT     9.9999999999999998E-13
       EPS_PGF_ORB     9.9999999999999995E-07
       EXTRAPOLATION  ASPC
       EXTRAPOLATION_ORDER  2
     &END QS
     &MGRID
       NGRIDS  5
       CUTOFF     4.5000000000000000E+02
       REL_CUTOFF     6.0000000000000000E+01
     &END MGRID
     &XC
       DENSITY_CUTOFF     1.0000000000000000E-10
       GRADIENT_CUTOFF     1.0000000000000000E-10
       TAU_CUTOFF     1.0000000000000000E-10
       &XC_GRID
         XC_SMOOTH_RHO  NN10
         XC_DERIV  NN10_SMOOTH
       &END XC_GRID
       &XC_FUNCTIONAL  NO_SHORTCUT
         &PBE  T
         &END PBE
       &END XC_FUNCTIONAL
       &VDW_POTENTIAL
         POTENTIAL_TYPE  PAIR_POTENTIAL
         &PAIR_POTENTIAL
           R_CUTOFF     1.0000000000000002E+01
           TYPE  DFTD3
           PARAMETER_FILE_NAME dftd3.dat
           REFERENCE_FUNCTIONAL PBE
         &END PAIR_POTENTIAL
       &END VDW_POTENTIAL
     &END XC
     &PRINT
       &MULLIKEN  SILENT
         FILENAME =CHARGE.mulliken
         &EACH
           MD  5
         &END EACH
       &END MULLIKEN
     &END PRINT
   &END DFT
   &SUBSYS
     &CELL
       A     1.0223900000000002E+01    0.0000000000000000E+00    0.0000000000000000E+00
       B     0.0000000000000000E+00    1.0223900000000002E+01    0.0000000000000000E+00
       C     0.0000000000000000E+00    0.0000000000000000E+00    2.6422000000000001E+01
       PERIODIC  XYZ
       MULTIPLE_UNIT_CELL  1 1 1
     &END CELL
     &COORD
Cu    4.3133564851598993E-01    9.9162807621275046E+00    3.8575013024506027E-01
Cu    2.9701064739107217E+00    2.2508935026322621E+00    3.8044469562181771E-01
Cu    6.1690078208531829E-01    9.8063237318949668E+00    3.9325233660629331E+00
Cu    3.0343512262650552E+00    2.0457922652379406E+00    3.9529876126861536E+00
Cu    3.1660618600054828E+00    9.6418366117316339E+00    4.1002456802340537E-01
Cu    5.1009794471637260E-01    2.1657906965202476E+00    4.7378940358453614E-01
Cu    3.0600001928580678E+00    9.7968598268907243E+00    3.8788130787554325E+00
Cu    5.0375412051955593E-01    2.2683476048712663E+00    3.9090584367283085E+00
Cu    4.3053443898351320E+00    7.9590732972540545E-01    2.5085077942713831E+01
Cu    1.5655800359233667E+00    3.3032984463548889E+00    2.5067421650250292E+01
Cu    4.2999706033746028E+00    9.4475833761712236E-01    2.1266854078483228E+00
Cu    1.6941585388591278E+00    3.5183225722566056E+00    2.2816555638858769E+00
Cu    1.8134213883748265E+00    9.0808123275586428E-01    2.5125906644968470E+01
Ag    4.1870879367588367E+00    3.5957982831551063E+00    2.4849055600267409E+01
Cu    1.6402192822055015E+00    8.1466261114008753E-01    2.1818591971324999E+00
Cu    4.3112405598933048E+00    3.5321017339607685E+00    2.2517378253966140E+00
Cu    5.5975500468022323E+00    9.6770065680947770E+00    4.3811791816211904E-01
Cu    8.1977008535259532E+00    2.2503703755895805E+00    4.3787004652890316E-01
Cu    5.5733776039012524E+00    9.9928300551391196E+00    3.9181596678611808E+00
Cu    8.0192756072980433E+00    2.2705553973337080E+00    4.0778726856750476E+00
Cu    8.0699621471228706E+00    9.7974969363569393E+00    4.0462774425881143E-01
Cu    5.5228075075394294E+00    2.2045222692950275E+00    4.3502158687752579E-01
Cu    8.0731186845625711E+00    9.7762319932192074E+00    4.1295925574633516E+00
Cu    5.7194290877986464E+00    2.1290504838432263E+00    3.8829234448120338E+00
Cu    9.4140007887095347E+00    9.6218612553216432E-01    2.5213474990162084E+01
Cu    6.8270300384394904E+00    3.5129639007206306E+00    2.5014899469609102E+01
Cu    9.3374474974682578E+00    8.8643078300260392E-01    2.4560304248214728E+00
Cu    6.8877026757917701E+00    3.4415066085364150E+00    2.1830657791201653E+00
Cu    6.8853572816536914E+00    7.9755974287112552E-01    2.5192687970448890E+01
Cu    9.4244276003691549E+00    3.5553081967469353E+00    2.5165468302458819E+01
Cu    6.8125280184724080E+00    8.6635417424516414E-01    2.0150133094786336E+00
Cu    9.3475559675610569E+00    3.4462312225561482E+00    2.2830496557894504E+00
Cu    4.1747577387725304E-01    4.8133688809607911E+00    4.8590102391019296E-01
Cu    3.0789932775536433E+00    7.1682188362880330E+00    2.8481591737773743E-01
Cu    4.1769721912591701E-01    4.9443631979971059E+00    3.9876523760061739E+00
Cu    3.0673913582296111E+00    7.2683299014451830E+00    4.0942261741731167E+00
Cu    2.9655165195065778E+00    4.6980227145207794E+00    4.9070625657714634E-01
Cu    4.7650828319082755E-01    7.2854861661996582E+00    4.2586569100916610E-01
Cu    2.8641296881324925E+00    4.6714670103945268E+00    4.0216212103609195E+00
Cu    6.6703379883501213E-01    7.4586389630491823E+00    4.1026607927408856E+00
Cu    4.2350947943029986E+00    5.9734941080721038E+00    2.4883691774402529E+01
Cu    1.5658182748715650E+00    8.5172676787317947E+00    2.5088815253488868E+01
Cu    4.3463859789891117E+00    6.0252424824576538E+00    2.3351103585766784E+00
Cu    1.7534407689988778E+00    8.4896150265219106E+00    2.0877527405756178E+00
Cu    1.6643723028698389E+00    5.9321475463896389E+00    2.5051377040004759E+01
Cu    4.3523156949454123E+00    8.4889711594880417E+00    2.4893215218755003E+01
Cu    1.7940430026220939E+00    6.0775544419425946E+00    2.2980786343430815E+00
Cu    4.4125955813600051E+00    8.6147032297440909E+00    2.1900139436888142E+00
Cu    5.4650584848438539E+00    4.6831817709350689E+00    5.2181615065552023E-01
Cu    7.9951532443407771E+00    7.2025409237951639E+00    4.3685090410467237E-01
Ag    5.4730853036488858E+00    4.6497451108506764E+00    4.4942278053329217E+00
Cu    8.2942354418687021E+00    7.2206861642288587E+00    3.9317457913723586E+00
Cu    8.0830461136651426E+00    4.7060473775512648E+00    3.8659388378422971E-01
Cu    5.4287057463339199E+00    7.2239641231596137E+00    4.8604092352023193E-01
Cu    8.1780063700792702E+00    4.6631509530173281E+00    3.9907624944554425E+00
Cu    5.7858796947662743E+00    7.4475426946662600E+00    4.1745621259570838E+00
Cu    9.2639499467534812E+00    6.0207377346626307E+00    2.5084344685247952E+01
Cu    6.8597940889110962E+00    8.4598396598929639E+00    2.5033840320707228E+01
Cu    9.3664556856348558E+00    6.0016558969768630E+00    2.1371724546677338E+00
Cu    6.9177670649548215E+00    8.6374757826966633E+00    2.2434073610797700E+00
Cu    6.6778022060455582E+00    5.9604661890120454E+00    2.4978927423855605E+01
Cu    9.3426715696050486E+00    8.5076855886715457E+00    2.5070984747581381E+01
Cu    6.7775774819467687E+00    5.9539875188883089E+00    2.2578325549714231E+00
Cu    9.4853665290218636E+00    8.5481814826027769E+00    2.1936753207321869E+00
O    1.0637019466344808E+00    1.7179138833095546E+00    7.2768814712555665E+00
H    1.0844770019029593E+01    2.5137812776541808E+00    7.1248632961825589E+00
H    1.9202900358814745E+00    1.6599515745346030E+00    6.6986407745968730E+00
O    7.1875422959643123E+00    1.1986151762539865E+01    7.4796222556780485E+00
H    7.1365247866575778E+00    1.2221196484127903E+00    8.3382452814259853E+00
H    6.3168523746823686E+00    2.2454919019883435E+00    7.5128495978127843E+00
O    2.4754307979449957E+00    7.9121226038628834E-01    1.8272579401879526E+01
H    2.0338841683917463E+00    1.1402247157774255E+00    1.9086600909853999E+01
H    2.5502484860035146E+00    9.9915033775772120E+00    1.8464114433059038E+01
O    2.8418834054073443E+00    5.2107248767313621E+00    8.5996453734141358E+00
H    3.5048415421436809E+00    4.4618914744176044E+00    8.4368092310157117E+00
H    2.4381453591089461E+00    5.6623591587298803E+00    7.7538808827668237E+00
O    1.2694946416537609E+00    6.5202114547766197E+00    7.0315978477420042E+00
H    1.6853000813814472E+00    7.4033189682698675E+00    7.1752364769867256E+00
H    1.4103487280653091E+00    6.3742941423937038E+00    6.0255641246653369E+00
O    2.0420882741634627E+00    5.0510641979809172E+00    1.3324964392894111E+01
H    2.1873746606800526E+00    4.3474701130041176E+00    1.2645876790922129E+01
H    2.0280243341321635E+00    4.5511029303106101E+00    1.4123705035769214E+01
O    6.4416428539308113E-01    6.3725372125988038E+00    1.8040570403614918E+01
H    2.7408696038970493E-01    6.4218433710586087E+00    1.7068923633224180E+01
H    1.4552424468365945E+00    6.9066358751145609E+00    1.8140712769844956E+01
O    7.0374503972625133E+00    1.0406550489507742E+00    2.2395679024743430E+01
H    6.6356209422267378E+00    1.0721695600006894E+01    2.1742655750435674E+01
H    6.2818577560799005E+00    1.3833567027362423E+00    2.2979653573514163E+01
O    7.1893069266648855E+00    5.9082828563623675E+00    1.9449794593431623E+01
H    7.8663015215630434E+00    6.6364732334718282E+00    1.9368361963768059E+01
H    6.3116377603150511E+00    6.2859046418012978E+00    1.9247382271823522E+01
O    1.6258925223523431E+00    8.6538033189877552E+00    1.3062621534725682E+01
H    7.3180437325637759E-01    8.1197841150587422E+00    1.3100359744289516E+01
H    1.3541662990772112E+00    9.6101867703108770E+00    1.3074733420635324E+01
O    7.9432883687646783E+00    4.2244581919129143E+00    1.7281535653560692E+01
H    7.1058752153127003E+00    3.9671070801842707E+00    1.6743095340576456E+01
H    7.5385160245102405E+00    4.9603332437177077E+00    1.7881865386251306E+01
O    9.8605886273894914E+00    1.1389059308967118E+01    2.2197909885794573E+01
H    7.6847063257426448E-02    1.1157296913731811E+01    2.3051701043126688E+01
H    8.9008704550596089E+00    1.0357834266139163E+00    2.2331662836424861E+01
O    4.3191066660652222E+00    6.3694923324668595E+00    1.8787007379694685E+01
H    3.6751628991961667E+00    5.9095017995737749E+00    1.9353463696436378E+01
H    4.1982519477026665E+00    6.0627237100442253E+00    1.7855160354842152E+01
O    4.3562711153604443E+00    6.0679808942641467E+00    1.2720181177204854E+01
H    3.5470391955633724E+00    5.7281305159807765E+00    1.3145858743487507E+01
H    4.6919421092732172E+00    6.8807780005857362E+00    1.3248772990633759E+01
O    2.3376085739050274E+00    7.6593876010073210E+00    1.5657743610073759E+01
H    2.1208859628408603E+00    8.0499427520901072E+00    1.4777514855547311E+01
H    2.9046519106701885E+00    8.3977551258049576E+00    1.5910808196754518E+01
O    6.6346780589588299E+00    4.6835015053215043E+00    1.1852545681258643E+01
H    6.0731025861667502E+00    5.2096754547819755E+00    1.2529820732430771E+01
H    7.3119828683156145E+00    4.2914827659636803E+00    1.2428778259217388E+01
O    6.2471510485990747E+00    9.9506689871719587E+00    1.7806119450842868E+01
H    5.9883504606881770E+00    1.0801191607367745E+01    1.7998463213280893E+01
H    7.1024561122623169E+00    9.7633226064162120E+00    1.7352680818195747E+01
O    2.6370297926091726E+00    8.8512970378684859E+00    1.0467799194487155E+01
H    3.3967808526167045E+00    8.1701483187915080E+00    1.0294855715487330E+01
H    2.4493041709526637E+00    8.8386118688944837E+00    1.1408713293029241E+01
C    5.4985546014705164E+00    4.3820988933487328E+00    6.6830876771772800E+00
O    3.7163446735751267E+00    1.4717360546713423E+00    1.4397832504232039E+01
H    4.5693233781105116E+00    1.7774100676744296E+00    1.4033277490984842E+01
H    3.2877882664594660E+00    9.3747081349870820E-01    1.3641597729200534E+01
O    9.3828841016563747E+00    9.9269181572855576E+00    1.1361653515964305E+01
H    8.9966875438363942E+00    9.4741871242800215E+00    1.2179917448526583E+01
H    9.9254546808787296E+00    3.7143949540074317E-01    1.1933858691088425E+01
O    3.4995502072592246E+00    1.3870483153096762E+00    2.2249373020465065E+01
H    3.0975553746887168E+00    1.5653723579073295E+00    2.3144292751812795E+01
H    2.7001774738776256E+00    1.6093881812529007E+00    2.1699024216264291E+01
O    9.5702907760399416E+00    6.7162218794107877E+00    2.2128266066314897E+01
H    9.0084536562303423E+00    7.2834784750959027E+00    2.2757309419195419E+01
H    9.2578756892939520E+00    6.9275635619961440E+00    2.1177039127376357E+01
O   -9.5140119790444191E-02    2.2709465671231732E+00    1.5153336021777880E+01
H    7.6980434245380758E-01    2.7880881133502426E+00    1.5493850875659353E+01
H   -1.1253918102042515E-01    1.5397393596327844E+00    1.5775654903914729E+01
O    8.3681063115214389E+00    6.3357063606603585E+00    1.0847968660839177E+01
H    7.6301910815872560E+00    5.7991877786128878E+00    1.1179744382109638E+01
H    7.9529220805571308E+00    7.1222774428460189E+00    1.0539485043070155E+01
O    2.0714266092193947E+00    3.3582698459044007E+00    1.5430412900678197E+01
H    2.6479309015020447E+00    3.9828871310212599E+00    1.5942899004027707E+01
H    2.6751484976615996E+00    2.6984739622835980E+00    1.4992534766024173E+01
O    3.7917127647352999E+00    5.3990935637497826E+00    2.1823807888608009E+01
H    3.5067749043426044E+00    4.9720373128338080E+00    2.2702704395613946E+01
H    4.7222531876341991E+00    5.7445699925818889E+00    2.2088107812666138E+01
O    1.8528353341755559E+00    4.6566948975956537E+00    1.9417345169665150E+01
H    1.5120561300118980E+00    4.6132828415728113E+00    2.0369133128594701E+01
H    1.2063294746016986E+00    5.1860488783101726E+00    1.8777031690351887E+01
O    4.6987991272381278E+00    1.0608807651921794E+01    1.1883087727241543E+01
H    5.5895189626316668E+00    5.3803520811969041E-01    1.2245054228559956E+01
H    4.7115332743372811E+00    1.0451487074549471E+01    1.0910605375508082E+01
O    4.7383878451256587E+00    2.2065139255691233E+00    1.8210742955800360E+01
H    3.9087648759017570E+00    1.6913990087887876E+00    1.8138998774334897E+01
H    4.6142888744214421E+00    2.7085250323689545E+00    1.9037967830465828E+01
O    3.1372322565214623E+00    9.1962551310635003E+00    6.9238271552841972E+00
H    2.5160892061036200E+00    8.9585271605806192E+00    6.1922257201498336E+00
H    3.9551419054329520E+00    8.6485967739439094E+00    6.7330794413630954E+00
O    6.7452008369370668E+00    1.2681189884974557E+00    1.3914157511027939E+01
H    7.4142539408951835E+00    1.8162159839014722E+00    1.3421714667721975E+01
H    7.0408058961618076E+00    3.3333277906485104E-01    1.3827170114199012E+01
O    7.0858433054732766E+00    6.3217948056675577E-01    1.0070362740565214E+01
H    7.9795191371190839E+00    1.0910889291010431E+01    1.0493580507755434E+01
H    6.7596118063140196E+00    1.5787226926378874E+00    1.0271490062808372E+01
O    7.9954668778592328E+00    9.1728012686353928E+00    1.3538436355667518E+01
H    7.2296203902912239E+00    8.4931703347303138E+00    1.3305322975994624E+01
H    8.2124869880907045E+00    8.9024491930100798E+00    1.4488037792493500E+01
O    5.6563407330842121E+00    7.6126117173792078E+00    6.2555347038695706E+00
H    6.2906907751268113E+00    8.3221673185154170E+00    6.3543039776824157E+00
H    6.0037746633025053E+00    6.7032979454843078E+00    6.5283108730016135E+00
O    1.0907315318906809E+01    5.0324598316224733E+00    1.0007724542737046E+01
H    1.4615551852352515E+00    4.9449970927068110E+00    9.4207488191545785E+00
H    1.0630074852416714E+01    5.9117285825105421E+00    1.0047917881516264E+01
O    5.9158749461441582E+00    8.7598706559116781E+00    2.0956004654282548E+01
H    5.6373498296722451E+00    8.8669478235867132E+00    2.0039231270077206E+01
H    5.1007338842303920E+00    9.0817796674315687E+00    2.1503413608442894E+01
O    1.2517719088774590E-01    1.0480743971954750E+01    1.7092072539786930E+01
H    1.0628215864792898E+00    1.0706407796824095E+01    1.7383693682692122E+01
H   -3.0212441267270035E-01    1.0441836507000017E+01    1.7920284520074571E+01
O    7.7655282871536855E+00    2.4690736060763592E+00    1.9423579360977786E+01
H    6.7478735122741096E+00    2.6044274785004098E+00    1.9666500790125582E+01
H    7.8343205691457447E+00    3.0496996042983917E+00    1.8580381150584234E+01
O    9.6443921941977635E+00    2.8273213892943718E+00    1.0624669101868852E+01
H    1.0294562800257324E+01    2.1551732244283417E+00    1.0405977899431216E+01
H    1.0117282618702776E+01    3.6798654575309224E+00    1.0372019898774017E+01
O    6.2988461202115587E-01    4.3547711511630762E+00    2.2012057929728936E+01
H    1.0642014788867356E+00    3.8084588948420368E+00    2.2711009625395942E+01
H    3.7444890779805112E-01    5.2105693291867548E+00    2.2418605135877325E+01
O    4.3150206008738934E+00    6.8305648612336691E+00    1.0231485627032237E+01
H    3.9540797300796870E+00    6.1880430964781938E+00    9.5956746204974959E+00
H    4.2960474378174736E+00    6.4648031545057609E+00    1.1175984835086009E+01
O    6.6667780742103604E+00    8.0779752571184833E+00    9.2842100110548085E+00
H    5.7663634823427063E+00    7.7501386508161145E+00    9.5050030713375939E+00
H    6.7619771226571670E+00    8.9542223489565558E+00    9.6197204387771702E+00
O    8.5328167340170218E+00    3.1193077018616227E+00    1.3017267324932405E+01
H    8.9678222854438783E+00    2.9150872758901025E+00    1.2146320812667375E+01
H    9.1218058943660996E+00    3.0287384836999975E+00    1.3819880484222377E+01
O    5.6421210871150240E+00    3.2366906052432021E+00    1.5970474580057187E+01
H    6.1475181574676858E+00    2.5214064679669188E+00    1.5573271473579474E+01
H    5.0815247107282300E+00    2.8749994922166286E+00    1.6730034721323872E+01
O    3.7687944095049772E+00    5.5006275242400653E+00    1.6069740328382203E+01
H    4.6598076200763332E+00    5.5484244073881213E+00    1.5634201880191053E+01
H    3.2565719433319891E+00    6.3448027621192340E+00    1.5834803243374765E+01
O    9.3259481139185301E+00    1.0568594912531134E+01    1.9590792974573155E+01
H    8.5122093766641367E+00    9.0448301181364488E-01    1.9426311860073760E+01
H    9.6220684278697135E+00    1.0853235523574616E+01    2.0477898932189149E+01
O    6.0710691128022276E+00    6.4587247658196993E+00    2.2172100898182098E+01
H    6.1556791716380355E+00    7.2875747382383853E+00    2.1563781014413532E+01
H    6.1594940865742700E+00    6.7448574312486338E+00    2.3123121823796286E+01
O    2.3510022567471112E-01    8.3413780202687846E+00    9.4135069341708366E+00
H    1.2879960681972278E+00    8.3993884240487056E+00    9.4859957263317281E+00
H    1.0152223176633496E+01    8.9537636548139830E+00    1.0065953938639488E+01
O    9.4359796220900325E+00    6.0311159541479729E+00    1.5889750667436013E+01
H    9.3054480799884374E+00    6.1872576537575483E+00    1.4944593685766195E+01
H    8.9902754579782744E+00    5.1954257540984372E+00    1.6130105467150297E+01
O    2.7830508822318913E+00    2.8591909633794965E+00    1.1539035090263631E+01
H    2.6333910723404936E+00    2.1913947620343537E+00    1.0776829426211524E+01
H    3.7782390332998301E+00    2.8564446749040115E+00    1.1574717125042053E+01
O    9.3878867279504892E+00    3.8061184546966849E+00    7.1372053979525250E+00
H    9.1336392665872399E+00    3.9873767693581903E+00    6.2300420967647128E+00
H    8.6843278225915501E+00    3.2092867986921676E+00    7.5125969640896644E+00
O    8.9165332770769652E+00    7.8686172746144623E+00    1.9608343940469783E+01
H    9.7233869717625314E+00    7.5883509642729052E+00    1.9068419474823052E+01
H    8.9471201532051161E+00    8.8797939823337284E+00    1.9713144061540369E+01
O    1.7684781958093061E+00    2.1585922175251446E+00    2.0456524391925971E+01
H    1.7912466056626515E+00    3.0807615116303557E+00    2.0032245142184973E+01
H    1.0331745378100095E+00    2.1131896763270674E+00    2.1102210005412093E+01
O    5.6400049616742578E+00    3.0199342504775286E+00    1.0378714622661311E+01
H    5.2352675459116140E+00    3.3380688728802408E+00    9.6162547001078309E+00
H    6.1840807065834218E+00    3.7713043836936944E+00    1.0820660724232717E+01
O    3.3791591508587264E+00    1.8733824067434803E+00    5.9991419454808801E+00
H    4.1177249246283276E+00    2.6878023073532020E+00    6.5249741309909917E+00
H    3.4827354299959477E+00    8.9804779894742870E-01    6.2292543335666837E+00
O    3.9411221836336243E+00    8.9878080075059898E+00    2.2713733801882118E+01
H    3.6000433568091377E+00    9.8496048719225158E+00    2.2533056889978553E+01
H    3.1224734040786779E+00    8.3974908269203201E+00    2.2439913295200224E+01
O    5.2571545542806852E+00    8.4292975800570442E+00    1.3561963816758910E+01
H    4.7885776819580679E+00    8.8605147443462862E+00    1.4346719169541522E+01
H    4.8062944368770317E+00    8.8445936076182470E+00    1.2793078363301245E+01
K    8.7091450264838812E+00    6.2867951678925769E+00    7.9586622610705415E+00
O    9.0821000475977087E-01    1.1484519988218069E+00    1.2974485440369691E+01
H    4.9443664020362571E-01    1.6498502545472102E+00    1.3787447480299173E+01
H    1.6074428658639335E+00    1.7163102683890588E+00    1.2568778217110390E+01
O    8.7120023268929732E+00    8.7805968296576360E+00    1.6087355340850923E+01
H    9.5158359366896512E+00    9.3327578774409989E+00    1.6234683163326583E+01
H    9.0412058438555665E+00    7.8661963216128958E+00    1.6118046924689679E+01
O    2.0010135424369522E+00    7.3073119479222468E+00    2.1517115424963968E+01
H    1.1458447112022969E+00    7.0232385092428240E+00    2.2009993812023215E+01
H    2.6558247164971736E+00    6.5535870677227450E+00    2.1707307037896076E+01
O    4.3640563465213278E+00    9.4915668331214462E+00    1.5822521917315967E+01
H    4.0786767228173364E+00    1.0404199549322636E+01    1.5503985890651380E+01
H    5.0556125787141957E+00    9.6644263727560169E+00    1.6499844958971554E+01
O    1.7178058417757802E+00    1.3420839377343892E+00    9.7555730119744570E+00
H    1.6264608528481441E+00    1.5545932828345799E+00    8.8183403280190049E+00
H    1.8017692468764357E+00    1.0562798326388776E+01    9.9223019049134411E+00
O    9.8450235948333766E+00    6.6240014562448426E+00    1.3047352771508095E+01
H    2.7651853215905758E-01    5.9109537552780775E+00    1.3089633974887919E+01
H    9.3670397071795044E+00    6.5758476347120451E+00    1.2138277646182187E+01
O   -3.1611328138263131E-02    9.5692344770145681E+00    7.1171902283387736E+00
H    4.0886963040675567E-01    3.1850108973795044E-01    7.0657683740116832E+00
H    1.9759686642257038E-02    9.1639047809983456E+00    8.0167638882016270E+00
O    7.8091270437906815E+00    9.5285361678388139E+00    6.1783608232647547E+00
H    7.5137219105992505E+00    1.0462037482837822E+01    6.6182385119672373E+00
H    8.7733100983519510E+00    9.4877172136597512E+00    6.4794931179160935E+00
O    2.7425840858847876E+00    8.4716426299307930E+00    1.9078814057325825E+01
H    3.4429798738392692E+00    7.7092564804973618E+00    1.8923905206527145E+01
H    2.4441335300427052E+00    8.2379521907692332E+00    2.0010371514502502E+01
K    7.7411762517228846E+00    4.2014030675652423E+00    2.1801559713819827E+01
O    5.2258228568549203E+00    3.3276755793532526E+00    2.0732083949436316E+01
H    4.5730688112569666E+00    3.8967247133731453E+00    2.1157819953025179E+01
H    4.9315618071754752E+00    2.5281895660175340E+00    2.1228766738228085E+01
O    6.2359065020088629E+00    5.2385659761925165E+00    7.3022751617830748E+00
O    4.9085917206742247E+00    3.3369544168936653E+00    7.3248382265989944E+00
     &END COORD
     &VELOCITY
           1.5088745835418056E-04   -5.3085106604761352E-05    3.9423808934634601E-05
           5.7253793035896665E-05    4.9089973339876279E-05   -1.0945623985655542E-05
          -1.0872075287609551E-04   -1.0445395586278688E-04   -1.1574775306162750E-04
           4.6234526620559048E-05   -5.3546078718283023E-05    3.4003701187999747E-06
          -2.0939493658538526E-04   -2.9317254998234124E-05    1.3307877497942806E-04
           1.3989836454878930E-04    7.0746226115294745E-05   -7.4598631977973245E-06
          -4.2519011598763116E-07    3.4591722958316932E-05    3.2100830671679344E-05
           2.8771141063256175E-05    4.2180667906497422E-05    2.5046463843331722E-05
           1.2091960588927347E-04    6.7357330261125846E-05    9.3497059454472083E-05
          -4.5563821548753503E-05    4.1083707413816117E-05   -2.2659027108279132E-04
          -1.3367547081865434E-04   -1.6494390280126419E-04    5.6636428163004351E-05
          -2.0101363750182932E-05    9.4198288141557741E-06    6.2487692424294429E-05
          -1.6694607754466184E-04   -8.4337579128830424E-05   -3.9439491980834035E-05
           5.8948249984003142E-05   -1.1679515793963344E-04   -2.5303210256017073E-06
           8.1957906923195114E-05   -6.1637904271492937E-05   -3.4400262662867953E-05
           6.8317582865348871E-05   -4.2587737875206618E-05    1.2629334905582117E-04
          -1.5030817390282696E-04    9.3337648468584458E-05    6.8620024244142166E-05
           1.9999532742274800E-05   -7.6190333471074065E-05   -7.1000575166306189E-05
           1.0174858728275958E-04    1.1596980419450407E-04   -3.7389577167423613E-05
          -7.9208617253371697E-06    5.6822806589911411E-05    8.8976616377029179E-05
           3.8428716254489535E-05    2.0642549348564281E-05   -6.3713388379138559E-06
           5.1426867732535936E-05   -1.5747789037180093E-05    5.3503360321502255E-05
           5.6186098064940981E-06   -9.7937059382265321E-05    3.9527475506459568E-05
           1.4417787238140366E-04   -7.0105175201665398E-05    6.9099726246094089E-05
           1.2634236868003316E-06   -1.0423031729778088E-05   -2.2390631422979828E-05
          -1.3432410766646313E-04   -1.8021622861513318E-05   -4.8992750759856072E-05
           4.6963916772393200E-05   -1.5214285997090943E-05    8.8213619666390623E-07
           1.3839776882921049E-05   -5.6986285302995624E-05   -2.0948546421225829E-04
           8.3193453015712062E-05    5.6432745665761468E-05    5.2813204755891628E-05
           2.0672984127801239E-05    5.0601840257613846E-05   -1.9607341148052560E-05
          -3.2010942935342424E-05   -7.3193326387724141E-05    7.0930095476398801E-05
           1.6034288525763922E-04    1.0920071081929226E-05    1.4176741802523685E-04