274
traj_0
Cu    9.719248    0.071976    25.760657
Cu    1.962069    2.508843    25.873743
Cu    9.650237    0.128412    3.141312
Cu    2.080155    2.458541    3.141047
Cu    2.031489    0.021675    25.890389
Cu    9.691439    2.668847    25.916547
Cu    1.933953    10.125444    3.237488
Cu    9.893668    2.562314    3.141576
Cu    3.349963    1.118597    24.212857
Cu    0.608527    3.949595    24.095014
Cu    3.406808    1.336059    1.158605
Cu    0.627339    3.824148    1.374208
Cu    0.762090    1.392597    24.015748
Ag    3.327777    3.667722    23.802523
Cu    0.659646    1.196810    1.327970
Cu    3.149063    3.837848    1.284109
Cu    4.645433    9.951740    25.930815
Cu    7.223185    2.488804    25.999776
Cu    4.409159    0.014927    3.147917
Cu    7.092115    2.694713    3.331286
Cu    7.137305    10.209484    26.153024
Cu    4.685102    2.500153    25.912055
Cu    7.070645    0.033534    2.948959
Cu    4.622634    2.519373    3.002596
Cu    8.275940    1.289847    24.274684
Cu    5.932418    3.776197    24.112189
Cu    8.397400    1.297720    1.476990
Cu    5.860953    3.862180    1.313966
Cu    5.910028    1.174931    24.113774
Cu    8.343316    3.796645    24.214178
Cu    5.842243    1.221040    1.322950
Cu    8.333603    3.757283    1.419654
Cu    9.720373    5.187402    25.903865
Cu    2.100398    7.730802    25.975204
Cu    9.512317    5.115631    3.083183
Cu    2.039464    7.691849    3.082655
Cu    1.920048    5.055514    25.952745
Cu    9.700948    7.729166    25.895674
Cu    1.655454    5.019935    3.198647
Cu    9.624166    7.568855    3.234317
Cu    3.254983    6.486349    24.173488
Cu    0.902975    8.970245    24.214706
Cu    3.227685    6.275532    1.208014
Cu    0.763623    9.043755    1.365753
Cu    0.530416    6.453735    24.037679
Cu    3.308454    8.892646    24.131741
Cu    0.776198    6.391471    1.303661
Cu    3.240874    8.930883    1.368660
Cu    4.560064    5.015845    25.853927
Cu    7.101623    7.707287    25.851021
Ag    4.461914    5.140475    3.234317
Cu    7.135771    7.713626    3.024791
Cu    7.026273    5.119413    25.877443
Cu    4.578160    7.548510    25.837545
Cu    7.161637    5.300274    3.202875
Cu    4.569163    7.680807    2.967191
Cu    8.434104    6.547181    24.299521
Cu    5.835291    8.906244    23.984042
Cu    8.427561    6.371330    1.243948
Cu    5.801450    8.958692    1.343030
Cu    5.864531    6.331661    24.022882
Cu    8.256719    9.009710    24.220783
Cu    5.912072    6.474285    1.221489
Cu    8.556689    8.915752    1.395874
 O    5.835086    8.049379    6.630601
 H    5.337080    8.092728    5.780341
 H    5.237704    8.067475    7.372002
 O    8.312951    6.835802    5.975600
 H    7.491154    7.318472    6.240612
 H    8.193331    6.520088    5.052151
 O    0.838973    1.789898    16.530132
 H    0.517125    1.062570    17.135724
 H    1.519272    1.254064    16.004598
 O    4.254676    0.244760    5.343057
 H    3.391370    10.015435    5.691035
 H    3.959614    1.188017    5.460371
 O    0.828545    1.154278    6.149456
 H    0.622533    2.112871    6.425038
 H    1.011144    1.310908    5.171050
 O    7.295775    3.009712    12.152535
 H    7.167158    3.113791    13.149173
 H    8.178813    3.364992    11.864006
 O    1.020959    5.424290    17.223445
 H    0.944382    4.985685    16.375563
 H    0.297515    6.158571    17.031357
 O    8.080766    1.259789    20.524081
 H    7.712399    0.735814    19.777395
 H    7.527244    2.125344    20.461725
 O    6.830485    4.003373    20.905351
 H    7.818830    4.205601    21.070752
 H    6.698086    4.218892    20.000926
 O    1.860341    8.490438    13.576680
 H    2.337388    7.672219    13.833502
 H    2.126571    8.663017    12.587441
 O    7.327060    2.339535    17.121456
 H    6.945606    2.712196    16.265912
 H    7.895816    2.988753    17.620039
 O    0.564768    1.567528    21.789695
 H    9.862281    1.778754    21.597871
 H    1.094060    2.265105    21.274466
 O    6.055309    4.896839    18.036186
 H    5.163581    5.149881    18.330262
 H    6.108985    5.083119    16.995423
 O    7.653918    4.045393    8.800640
 H    7.419382    4.997647    8.611722
 H    8.249767    3.793885    8.041536
 O    6.916571    6.009711    15.540628
 H    7.284120    6.809526    15.886227
 H    7.737959    5.459972    15.544063
 O    9.505569    4.391472    10.974906
 H    9.062363    4.027399    10.172206
 H    0.153154    3.884571    11.035941
 O    3.911357    8.434820    16.616003
 H    3.429505    9.162455    16.033662
 H    4.870564    8.540842    16.553647
 O    4.496165    5.356506    9.148353
 H    5.064716    5.179939    8.401403
 H    4.239954    6.301296    9.030247
 O    7.243633    3.185563    5.423115
 H    7.059501    2.307943    5.923284
 H    8.202022    3.288006    5.660121
 O    4.741538    1.004089    13.993620
 H    4.177486    1.438809    13.327257
 H    5.258458    0.279624    13.520402
 O    2.062365    8.804925    10.995251
 H    2.769143    8.562823    10.385960
 H    1.769041    9.643387    10.535773
 O    3.348225    8.863815    21.881379
 H    3.865452    9.626415    21.519134
 H    2.394540    9.085775    21.728132
 O    9.476124    7.264490    20.831897
 H    8.751249    7.161126    20.052184
 H    9.048356    7.356607    21.701710
 O    3.281156    3.232082    12.932512
 H    3.900009    3.674879    12.267470
 H    3.386974    3.646967    13.890838
 O    8.758304    6.782433    11.995588
 H    9.005109    5.896225    11.715251
 H    9.292707    7.306715    11.355647
 O    3.631427    4.173089    15.478008
 H    3.475513    5.143542    15.313399
 H    3.331867    3.807176    16.377148
 O    3.015642    5.620691    21.220829
 H    2.303547    6.074019    21.723640
 H    3.025763    6.124627    20.357623
 O    9.126262    4.137817    18.603202
 H    9.996418    4.456496    18.209250
 H    9.372965    3.974746    19.538012
 O    6.017788    9.560369    12.656931
 H    7.054287    9.814331    12.929341
 H    5.838051    8.633879    12.805687
 O    2.984868    2.888252    17.833000
 H    2.131990    2.582659    17.492157
 H    3.653511    2.136591    17.814505
 O    10.006438    6.025251    7.711789
 H    10.105916    6.608524    8.545667
 H    9.258253    6.438297    7.190483
 O    8.236374    10.137815    13.762691
 H    8.658110    0.773131    13.764277
 H    8.961453    9.500661    13.767183
 O    8.358038    9.941823    9.197234
 H    8.183005    10.075756    8.227547
 H    7.417746    10.185969    9.579560
 O    9.551065    7.799404    14.190728
 H    0.267457    7.861259    13.971689
 H    9.135873    7.306715    13.398860
 O    3.843777    8.250994    8.868809
 H    3.181371    8.669969    8.194519
 H    4.418258    8.954910    9.215729
 O    2.239954    3.114813    8.341954
 H    2.732951    3.072077    7.491430
 H    2.866066    3.526223    9.006203
 O    5.558837    6.661995    21.878737
 H    4.638788    6.368570    21.681893
 H    6.110621    5.919638    21.699860
 O    6.756873    8.804720    16.166301
 H    7.259071    9.231466    16.941522
 H    6.845208    9.430628    15.432562
 O    5.114199    1.175135    18.326563
 H    5.137408    1.404253    19.271678
 H    5.975256    1.559043    17.928120
 O    0.600859    0.890399    9.799656
 H    9.891010    0.665985    9.403854
 H    0.979041    1.590634    9.270159
 O    2.339331    2.895204    20.557901
 H    2.559451    3.866372    20.788830
 H    2.636233    2.812390    19.620185
 O    6.928839    6.961454    9.226034
 H    7.463651    7.782944    9.095773
 H    6.849093    6.879560    10.194929
 O    9.969734    7.916059    10.079200
 H    9.434001    8.715159    9.655127
 H    0.592884    8.217153    10.483985
 O    0.985584    2.635721    11.936403
 H    0.999182    1.991820    11.104638
 H    1.848992    2.836008    12.320579
 O    6.406091    2.955729    14.704107
 H    5.884672    2.174521    14.392328
 H    5.666903    3.644002    14.799226
 O    9.206111    4.912277    15.042573
 H    9.585929    5.365912    14.278977
 H    9.299966    3.910131    14.811645
 O    5.677025    8.687043    19.643700
 H    5.025660    9.329513    19.249484
 H    5.098454    8.142007    20.166856
 O    7.068191    9.412225    21.852315
 H    6.714035    9.067986    21.020551
 H    7.428175    0.129230    21.640939
 O    3.710867    2.994069    5.918528
 H    3.200796    3.521520    5.252694
 H    4.452815    3.581943    6.117750
 O    9.570797    2.344647    14.362999
 H    10.128409    2.423473    13.535198
 H    10.206622    1.933953    15.053670
 O    5.139043    2.394335    9.158129
 H    5.793884    3.085573    9.178739
 H    5.286165    1.920560    8.359921
 O    5.609956    5.127797    6.707225
 H    6.392800    4.825374    6.183012
 H    5.327163    5.905120    6.156854
 O    7.695836    6.871994    18.904677
 H    7.108575    6.126979    18.568061
 H    7.093240    7.653509    19.078534
 O    7.854000    10.178506    17.997874
 H    8.846741    10.123092    18.131833
 H    7.792963    0.822615    17.561118
 O    5.829872    10.176972    10.054364
 H    5.628973    0.989980    10.068632
 H    5.855125    9.901745    11.041754
 O    1.647173    6.927919    6.055130
 H    1.363562    6.669152    5.206191
 H    1.032716    6.513647    6.717265
 O    3.288415    6.420609    18.449162
 H    3.522747    7.219096    17.821639
 H    2.605050    5.938143    17.934989
 O    5.659440    6.717102    13.259881
 H    6.349144    6.403126    13.933642
 H    5.556383    5.967384    12.595103
 O    6.847457    0.899805    6.822160
 H    5.978119    0.579286    6.409713
 H    7.496675    0.303241    6.374836
 O    2.529802    0.083938    15.314191
 H    2.275022    9.635310    14.528401
 H    3.288722    0.570903    14.857091
 O    9.699414    7.696552    16.851423
 H    8.826088    7.422142    17.328076
 H    9.354664    7.933440    15.975270
 O    1.028320    9.428174    20.657776
 H    0.752990    0.033432    21.130202
 H    0.279930    8.799097    20.790151
 O    3.509967    6.612921    14.644922
 H    4.335445    6.557609    14.033517
 H    3.620385    7.219811    15.481971
 O    2.399754    9.215108    6.876326
 H    1.626725    9.837130    7.009757
 H    2.029240    8.350779    6.397559
 O    5.097023    4.506593    11.650252
 H    6.002861    3.928636    11.704418
 H    4.987321    4.786830    10.678716
 O    8.928532    9.787339    6.212605
 H    9.138020    8.838153    6.012062
 H    9.728757    0.092015    6.031086
 O    9.896735    3.870871    6.204150
 H    10.191184    4.506695    6.935247
 H    0.227482    3.941211    5.399864
 O    0.439014    9.747875    18.013198
 H    0.748185    9.651566    18.941932
 H    0.183008    8.875674    17.686358
 O    9.439727    4.634085    21.320969
 H    9.583066    5.600141    21.067053
 H    9.777422    4.575604    22.247588
 O    4.537367    1.335855    21.269974
 H    5.017481    1.529086    22.171493
 H    3.935997    2.088334    21.144734
