274
traj_8000
Cu    9.292707    10.208257    26.096217
Cu    1.717002    2.352213    25.968334
Cu    9.328798    0.015745    3.301165
Cu    1.650035    2.525201    3.312790
Cu    1.710050    10.147221    26.061075
Cu    9.368466    2.666393    26.098595
Cu    1.564768    0.128310    3.310941
Cu    9.287595    2.464778    3.369598
Cu    3.139453    1.252019    24.166354
Cu    0.358245    3.830691    24.310354
Cu    3.114507    1.205398    1.605136
Cu    0.374910    3.768938    1.488351
Cu    0.422247    1.125754    24.161334
Ag    2.867702    3.868008    24.073084
Cu    0.369594    1.302729    1.459551
Cu    2.972906    3.912175    1.503676
Cu    4.241794    0.137409    25.977318
Cu    6.654839    2.485737    26.097274
Cu    4.294242    10.085264    3.359557
Cu    6.815047    2.493405    3.346082
Cu    6.807993    10.222878    26.308121
Cu    4.145280    2.621408    26.019593
Cu    6.833144    0.108067    3.272893
Cu    4.293425    2.483692    3.465245
Cu    7.964725    1.153563    24.435858
Cu    5.628052    4.036191    24.259624
Cu    8.162966    1.286269    1.474876
Cu    5.518861    3.879663    1.498127
Cu    5.452713    1.444126    24.363990
Cu    8.076881    3.646354    24.244563
Cu    5.457007    1.438707    1.595625
Cu    8.090581    3.884571    1.434450
Cu    9.321845    5.160411    26.194242
Cu    1.662815    7.745627    26.160422
Cu    9.348939    4.931089    3.307506
Cu    1.800122    7.712706    3.279499
Cu    1.783968    5.109803    26.040995
Cu    9.265921    7.608217    26.303629
Cu    1.657908    5.036804    3.220578
Cu    9.364888    7.760451    3.297466
Cu    2.891523    6.474796    24.423704
Cu    0.468561    8.910538    24.471528
Cu    3.016766    6.398321    1.570524
Cu    0.482057    8.910845    1.655603
Cu    0.451999    6.380634    24.489495
Cu    3.008792    8.923113    24.389091
Cu    0.473367    6.349042    1.584263
Cu    2.976177    9.019934    1.565768
Cu    4.385746    5.136794    26.062397
Cu    6.775276    7.659746    26.160158
Ag    4.258152    5.026274    3.593128
Cu    6.696757    7.588894    3.250170
Cu    6.855943    5.140066    26.102822
Cu    4.198751    7.614352    26.197941
Cu    6.921069    4.892034    3.487440
Cu    4.297923    7.579488    3.338420
Cu    8.278905    6.315405    24.418948
Cu    5.533584    9.044471    24.397018
Cu    8.083629    6.335955    1.726942
Cu    5.535628    9.074734    1.511338
Cu    5.679888    6.501071    24.274684
Cu    8.154378    8.873221    24.409436
Cu    5.409772    6.335444    1.641863
Cu    7.980981    8.968405    1.587698
 O    5.610979    6.694303    6.419489
 H    5.011245    7.055411    5.670954
 H    5.319597    7.115016    7.226945
 O    8.191082    6.421018    6.491357
 H    7.245780    6.648807    6.346829
 H    8.550759    5.804926    5.785361
 O    1.354667    0.935385    16.752869
 H    1.106942    0.262856    17.433500
 H    1.995705    0.369287    16.199328
 O    4.490439    10.184640    5.408319
 H    3.826601    9.599015    5.815746
 H    4.247110    0.875473    5.723005
 O    0.757284    0.717002    6.450139
 H    0.640016    0.941723    5.470939
 H    0.866987    1.647888    6.803665
 O    6.823635    2.201921    11.741673
 H    6.705243    1.870667    12.680182
 H    7.759224    2.566812    11.802443
 O    1.064615    4.860135    17.409456
 H    0.920151    4.613024    16.458264
 H    0.571414    5.719045    17.467320
 O    8.047845    1.244555    21.112235
 H    8.354153    1.137409    20.166591
 H    7.556382    2.121459    21.257556
 O    6.532970    3.888763    21.600513
 H    7.361106    4.387893    21.424014
 H    5.952764    4.091605    20.817630
 O    2.704528    7.124422    14.133656
 H    3.459972    6.535935    14.404218
 H    2.804314    7.286982    13.131734
 O    7.256924    3.957672    17.604450
 H    7.530209    4.050607    16.653787
 H    8.029851    3.633165    18.122321
 O    0.376546    1.350475    22.066069
 H    9.667004    1.445455    21.695897
 H    0.938145    2.125140    21.698275
 O    5.627235    5.203658    19.377895
 H    4.686431    5.249768    19.012743
 H    6.088128    4.696246    18.662123
 O    8.500253    3.022696    9.050592
 H    8.134339    3.962988    9.120874
 H    9.044880    2.993762    8.210637
 O    7.994067    3.887025    15.056577
 H    7.814127    3.162661    14.465252
 H    8.880684    4.166035    14.683234
 O    9.433286    3.299457    11.507045
 H    9.387381    3.206011    10.516220
 H    10.216232    2.689499    11.635192
 O    4.596870    8.087514    17.278667
 H    4.242305    8.762087    16.668847
 H    5.000714    8.478578    18.087973
 O    3.824148    5.337183    9.224449
 H    4.288210    6.198239    8.833139
 H    4.224413    4.637766    8.659018
 O    7.649726    2.978120    6.228986
 H    7.558018    1.997034    6.114315
 H    7.870767    3.387894    5.370007
 O    4.172578    10.036496    12.914545
 H    4.366014    0.724261    13.074398
 H    5.036498    9.468763    12.852189
 O    3.006338    7.613125    11.441519
 H    3.720273    7.269909    10.871332
 H    2.812595    8.523972    11.121548
 O    3.336672    8.961453    21.494033
 H    3.607299    9.856760    21.788110
 H    2.352826    9.102645    21.222679
 O    8.707593    7.204885    21.301416
 H    8.077699    7.276145    20.544690
 H    8.195785    7.559858    22.102267
 O    2.849708    3.571208    13.679462
 H    3.585317    4.049687    13.214171
 H    3.245782    3.410693    14.571997
 O    8.904097    5.839074    12.422039
 H    9.102338    4.909108    12.149100
 H    9.401183    6.394027    11.737973
 O    4.454553    3.402207    15.853200
 H    4.671402    4.371126    15.761516
 H    4.007871    3.178508    16.734902
 O    2.430017    5.968304    21.199427
 H    2.114609    6.647069    21.802378
 H    2.493916    6.277679    20.275714
 O    9.680500    3.234331    19.008515
 H    0.084858    3.913300    18.490380
 H    9.623655    3.682342    19.869080
 O    6.320415    8.693587    12.712417
 H    7.116652    9.083628    13.147851
 H    6.251506    7.749614    13.027631
 O    2.886411    2.469583    18.372538
 H    2.372660    1.955014    17.690586
 H    3.758203    1.997034    18.319694
 O    1.394233    5.284529    8.582394
 H    2.228401    5.466310    8.971854
 H    0.783355    5.686840    9.308206
 O    8.362332    9.283199    14.091645
 H    8.765154    10.161125    14.173818
 H    9.162148    8.700028    14.052012
 O    9.684078    9.373578    9.775612
 H    9.598709    9.501990    8.798790
 H    8.723849    9.308554    10.086334
 O    0.070647    7.204169    14.383080
 H    1.044883    7.078722    14.358243
 H    9.861156    6.597789    13.714075
 O    4.901542    8.008483    8.659546
 H    4.214496    8.631425    8.252647
 H    5.614659    8.389630    9.258005
 O    3.345362    1.471526    9.312962
 H    4.364276    1.429301    9.278878
 H    3.086595    1.632655    8.312361
 O    5.478579    6.764848    22.256307
 H    4.559962    6.911970    22.062370
 H    5.581431    5.815457    21.937394
 O    7.017889    10.195989    16.256664
 H    7.652282    0.053369    17.067027
 H    7.447395    9.539819    15.718448
 O    5.383906    1.344034    17.902490
 H    6.149983    1.925569    18.101712
 H    5.655657    0.821490    17.081295
 O    1.882936    9.969632    10.767229
 H    1.015029    9.926896    10.351347
 H    2.494325    0.310295    10.124382
 O    1.975871    3.125446    20.934943
 H    2.173806    4.058684    21.088191
 H    2.268479    2.904201    20.023384
 O    7.768017    5.571923    9.040552
 H    8.344134    5.956546    9.753681
 H    8.031487    5.969020    8.184479
 O    0.275227    6.973007    10.611075
 H    0.025866    7.849297    10.125175
 H    1.172068    7.183005    10.887714
 O    1.234843    1.779674    12.377914
 H    1.423474    1.019834    11.810634
 H    1.999999    2.290972    12.721136
 O    6.135362    1.849504    14.341597
 H    6.606786    1.226357    14.938999
 H    5.710968    2.439218    14.992635
 O    0.582558    4.016868    15.064503
 H    1.291892    4.131580    14.333142
 H    0.369287    3.021469    14.997391
 O    5.385235    9.266943    19.678049
 H    5.168693    0.012269    19.503664
 H    4.633574    8.922091    20.191957
 O    6.707492    9.366524    22.495691
 H    6.355278    8.611693    21.941621
 H    7.022797    10.133010    21.868168
 O    3.601471    2.262651    6.258315
 H    2.965851    2.836110    5.693677
 H    4.208873    2.936815    6.735760
 O    10.058477    1.175442    14.532628
 H    0.596565    1.021368    13.913561
 H    0.263572    0.884776    15.371791
 O    6.018401    1.273285    9.123252
 H    6.577444    1.922502    9.606247
 H    6.317246    1.192209    8.213279
 O    5.285450    3.992637    7.197353
 H    6.151414    3.564460    7.068413
 H    5.385337    4.837336    6.620032
 O    7.487371    7.375010    18.834658
 H    6.700540    6.793884    18.670578
 H    7.221856    8.336057    18.842585
 O    8.511295    0.740926    18.472149
 H    9.267250    0.045087    18.356949
 H    9.114709    1.495245    18.239371
 O    7.122378    9.238418    10.079729
 H    6.743480    10.165215    9.976419
 H    6.816070    8.917592    10.949541
 O    1.667314    7.054389    6.481317
 H    1.657601    6.627745    5.535937
 H    1.346385    6.329105    7.156399
 O    3.216439    5.744298    18.523407
 H    3.547693    6.545136    17.997610
 H    2.430221    5.322971    17.905397
 O    6.392493    6.165932    13.187749
 H    7.316121    5.869745    12.954971
 H    5.711888    5.572434    12.746765
 O    6.829463    0.306819    6.457537
 H    6.002554    10.089660    6.022366
 H    7.610467    9.925567    6.665478
 O    3.007667    9.570184    15.398742
 H    2.707289    8.646557    15.173626
 H    3.454451    9.892134    14.518361
 O    9.661074    7.141292    17.031621
 H    8.750227    6.922091    17.295049
 H    9.699312    7.249767    16.060613
 O    0.645946    9.202839    20.928602
 H    0.497597    10.042835    21.468668
 H    10.106632    8.543398    21.119369
 O    4.845822    5.963192    15.425956
 H    5.641037    6.029034    14.905179
 H    4.886922    6.665778    16.172114
 O    2.931192    9.210916    7.038557
 H    2.101727    9.739185    7.067357
 H    2.519782    8.298944    6.879760
 O    4.939473    4.309987    11.894392
 H    5.551067    3.543808    11.943272
 H    4.647478    4.392494    10.939501
 O    9.137304    9.167873    7.033801
 H    9.197523    8.235454    6.628487
 H    9.851341    9.835596    6.617390
 O    0.557918    3.418361    6.692164
 H    0.912688    4.183109    7.255745
 H    0.597280    3.694304    5.730668
 O    0.269093    9.311315    18.287195
 H    0.392393    9.290867    19.246313
 H    10.205701    8.449542    17.876068
 O    9.341066    4.615886    21.390194
 H    9.417541    5.600448    21.530231
 H    9.819034    4.297003    22.170436
 O    4.121765    1.442797    21.209996
 H    4.810856    1.571413    21.955889
 H    3.412840    2.145383    21.512000
