Generated from /home/shaofl/projects/03_CuAg_SAA/explicit/double-side/bader/1k/calc_t1050_i1050/traj_1050.cif by cif2poscar.py
   1.00000000000000
    10.2239000000000004  0.0000000000000000  0.0000000000000000
     0.0000000000000006 10.2239000000000004  0.0000000000000000
     0.0000000000000016  0.0000000000000016 26.4220000000000006
 Cu Ag O H K
    62    2    68    136    2
Direct
   0.9795600000000000  0.0172800000000000  0.9427500000000000
   0.2312000000000000  0.2671900000000000  0.9475300000000000
   0.9931400000000000  0.0240800000000000  0.0798800000000000
   0.2272000000000000  0.2507100000000000  0.0827800000000000
   0.2308000000000000  0.0168200000000000  0.9480400000000000
   0.9768200000000000  0.2566800000000000  0.9440800000000000
   0.2377900000000000  0.0023000000000000  0.0790900000000000
   0.9807399999999999  0.2701900000000000  0.0867700000000000
   0.3608000000000000  0.1270500000000000  0.8853400000000000
   0.0844900000000000  0.4013600000000000  0.8729900000000000
   0.3693100000000000  0.1257400000000000  0.0140800000000000
   0.1023100000000000  0.3749700000000000  0.0108000000000000
   0.1066600000000000  0.1418900000000000  0.8784300000000000
   0.1011500000000000  0.1421800000000000  0.0158300000000000
   0.3560200000000000  0.3849500000000000  0.0158700000000000
   0.4979900000000000  0.0101000000000000  0.9486400000000000
   0.7404700000000000  0.2656600000000000  0.9477800000000000
   0.4736400000000000  0.0059400000000000  0.0858100000000000
   0.7301500000000000  0.2688700000000000  0.0812700000000000
   0.7326000000000000  0.0120700000000000  0.9488300000000000
   0.4774100000000000  0.2531500000000000  0.9499100000000000
   0.7285100000000000  0.0147800000000000  0.0813700000000000
   0.4821200000000000  0.2638200000000000  0.0804500000000000
   0.8553900000000000  0.1538400000000000  0.8793800000000001
   0.6082200000000000  0.3844500000000000  0.8843400000000000
   0.8485300000000000  0.1393600000000000  0.0162800000000000
   0.6003200000000000  0.3930900000000000  0.0198900000000000
   0.5979200000000000  0.1354700000000000  0.8827700000000001
   0.8560700000000000  0.3930900000000000  0.8831700000000000
   0.6002300000000000  0.1408400000000000  0.0201700000000000
   0.8646700000000000  0.3901800000000000  0.0174300000000000
   0.9884800000000000  0.5208199999999999  0.9485000000000000
   0.2414200000000000  0.7600600000000000  0.9453000000000000
   0.9712000000000000  0.5180200000000000  0.0841900000000000
   0.2209500000000000  0.7556100000000000  0.0838100000000000
   0.2282800000000000  0.5086600000000000  0.9447400000000000
   0.9910700000000000  0.7588500000000000  0.9398000000000000
   0.2229800000000000  0.5112200000000000  0.0844000000000000
   0.9755500000000000  0.7788300000000000  0.0844300000000000
   0.3695000000000000  0.6501700000000000  0.8778000000000000
   0.1098100000000000  0.8930300000000000  0.8773900000000000
   0.3536200000000000  0.6437400000000000  0.0207500000000000
   0.1066700000000000  0.8781400000000000  0.0127300000000000
   0.1266000000000000  0.6401900000000000  0.8772500000000000
   0.3605600000000000  0.8942000000000000  0.8781500000000000
   0.1055800000000000  0.6397400000000000  0.0186500000000000
   0.3568300000000000  0.8825700000000000  0.0151500000000000
   0.4765100000000000  0.5097400000000000  0.9500999999999999
   0.7416400000000000  0.7498300000000000  0.9463300000000000
   0.7225500000000000  0.7764300000000000  0.0887200000000000
   0.7254699999999999  0.5156600000000000  0.9515000000000000
   0.4827400000000000  0.7673200000000000  0.9450000000000000
   0.7292600000000000  0.5245800000000000  0.0807300000000000
   0.4693300000000000  0.7697900000000000  0.0827100000000000
   0.8566900000000000  0.6399800000000000  0.8710300000000000
   0.6080100000000001  0.8684100000000000  0.8758400000000000
   0.8527300000000000  0.6362600000000000  0.0137500000000000
   0.6065100000000000  0.8869899999999999  0.0123800000000000
   0.6124900000000000  0.6300500000000000  0.8808900000000000
   0.8635900000000000  0.8972200000000000  0.8840200000000000
   0.6006500000000000  0.6428800000000000  0.0196200000000000
   0.8526899999999999  0.8737100000000000  0.0183800000000000
   0.3513700000000000  0.3875900000000000  0.8691300000000000
   0.4860000000000000  0.5307500000000001  0.1087600000000000
   0.7817400000000000  0.9614600000000000  0.2132000000000000
   0.8349200000000000  0.6454700000000000  0.2181700000000000
   0.3473100000000000  0.9787700000000000  0.5869500000000000
   0.6540100000000000  0.1900500000000000  0.1934800000000000
   0.2529100000000000  0.0752000000000000  0.2040200000000000
   0.6732700000000000  0.3372800000000000  0.4815900000000000
   0.4300700000000000  0.5972700000000000  0.5780100000000000
   0.7764000000000000  0.9534899999999999  0.8017100000000000
   0.9906700000000001  0.4325600000000000  0.6471500000000000
   0.3954600000000000  0.7387899999999999  0.4345400000000000
   0.0687600000000000  0.3964500000000000  0.5521000000000000
   0.9770900000000000  0.0218500000000000  0.7282400000000000
   0.7423300000000000  0.5717200000000000  0.7196000000000000
   0.7512000000000000  0.3737200000000000  0.3172000000000000
   0.7292999999999999  0.7282400000000000  0.6346000000000001
   0.9841200000000000  0.3178500000000000  0.3748800000000000
   0.4929700000000000  0.8551100000000000  0.6696100000000000
   0.6825200000000000  0.6221400000000000  0.3305800000000000
   0.8309000000000000  0.3731700000000000  0.2113200000000000
   0.5984000000000000  0.0766000000000000  0.4479500000000000
   0.3981900000000000  0.8085400000000000  0.3362500000000000
   0.4395400000000000  0.0357900000000000  0.7593400000000000
   0.1090300000000000  0.4522100000000000  0.7921000000000000
   0.3716100000000000  0.2301400000000000  0.4626200000000000
   0.0779500000000000  0.5417900000000000  0.3655800000000000
   0.5572400000000000  0.3548900000000000  0.5740800000000000
   0.7655200000000000  0.2552300000000000  0.7760300000000000
   0.3379500000000000  0.4545800000000000  0.7293400000000000
   0.7440800000000000  0.8954200000000000  0.3988500000000000
   0.4184300000000000  0.1935300000000000  0.6259900000000000
   0.2142400000000000  0.6975500000000000  0.2034400000000000
   0.0059200000000000  0.9222900000000001  0.4339600000000000
   0.0127200000000000  0.9075800000000001  0.2980400000000000
   0.1246000000000000  0.6924200000000000  0.4385000000000000
   0.6476100000000000  0.9407200000000000  0.3053200000000000
   0.2578600000000000  0.3024300000000000  0.2991400000000000
   0.5870500000000000  0.7762900000000000  0.7616500000000000
   0.9571300000000000  0.9849300000000000  0.5277400000000000
   0.7577199999999999  0.1149500000000000  0.5613800000000000
   0.2466700000000000  0.9997200000000001  0.3114600000000000
   0.2490000000000000  0.2075600000000000  0.7076100000000000
   0.9318200000000000  0.6902800000000000  0.3150600000000000
   0.2528300000000000  0.5931700000000000  0.2977100000000000
   0.1949100000000000  0.1005800000000000  0.4057300000000000
   0.7319300000000000  0.3609000000000000  0.6543800000000000
   0.8992000000000000  0.4553000000000000  0.4752200000000000
   0.8406800000000000  0.9943500000000000  0.6465200000000000
   0.9573000000000000  0.6653500000000000  0.7625000000000000
   0.4908300000000000  0.4319600000000000  0.2098200000000000
   0.1898300000000000  0.6164200000000000  0.5283600000000001
   0.5216400000000000  0.2733800000000000  0.3657200000000000
   0.5826200000000000  0.6688100000000000  0.2421400000000000
   0.0700200000000000  0.6812000000000000  0.6744599999999999
   0.1763900000000000  0.1567400000000000  0.5297100000000000
   0.9047400000000000  0.1418600000000000  0.2970100000000000
   0.4221600000000000  0.8458599999999999  0.1989700000000000
   0.5734100000000000  0.4503700000000000  0.7728600000000000
   0.7308400000000000  0.6411700000000000  0.4364200000000000
   0.5213000000000000  0.8859200000000000  0.5098800000000000
   0.1401900000000000  0.8298400000000000  0.5808000000000000
   0.2119400000000000  0.8995900000000000  0.7610700000000000
   0.6696100000000000  0.6934100000000000  0.5328400000000000
   0.4818200000000000  0.1469300000000000  0.2711000000000000
   0.4783200000000000  0.4850700000000000  0.4292900000000000
   0.0262000000000000  0.8993600000000000  0.1897700000000000
   0.2418500000000000  0.4071100000000000  0.1884300000000000
   0.3256600000000000  0.6509800000000000  0.6678200000000000
   0.6053900000000000  0.1049000000000000  0.6908400000000000
   0.7468200000000000  0.0519200000000000  0.2004400000000000
   0.7403300000000000  0.8943900000000000  0.1919700000000000
   0.8767200000000001  0.6767300000000001  0.2513100000000000
   0.8700800000000000  0.6927200000000000  0.1903800000000000
   0.2595400000000000  0.9091600000000000  0.5842900000000000
   0.4107700000000000  0.9642900000000000  0.5599300000000000
   0.5767700000000000  0.1977600000000000  0.2204700000000000
   0.6044100000000000  0.1684900000000000  0.1623000000000000
   0.2955900000000000  0.1351600000000000  0.1769700000000000
   0.3023600000000000  0.9940400000000000  0.1983200000000000
   0.6092900000000000  0.3938200000000000  0.4626200000000000
   0.6265200000000000  0.3368400000000000  0.5144100000000000
   0.3545000000000000  0.5927700000000000  0.5534800000000000
   0.3843500000000000  0.6001200000000000  0.6105699999999999
   0.7308500000000000  0.8870800000000000  0.7811100000000000
   0.7165899999999999  0.0282700000000000  0.8037500000000000
   0.0038400000000000  0.5316300000000000  0.6566700000000000
   0.8984100000000000  0.4243500000000000  0.6437600000000000
   0.4209600000000000  0.6421900000000000  0.4313700000000000
   0.4163100000000000  0.7837200000000000  0.4023900000000000
   0.9943200000000000  0.4303000000000000  0.5291100000000000
   0.0349200000000000  0.4068600000000000  0.5897700000000000
   0.9272100000000000  0.0056300000000000  0.6930700000000000
   0.9104800000000000  0.0005800000000000  0.7549700000000000
   0.6643500000000000  0.5554000000000000  0.7432700000000000
   0.7231700000000000  0.6344100000000000  0.6903100000000000
   0.7220000000000000  0.4663500000000000  0.3243900000000000
   0.7682300000000000  0.3851300000000000  0.2790700000000000
   0.7710000000000000  0.8150100000000000  0.6335499999999999
   0.6942300000000000  0.7117599999999999  0.6002700000000000
   0.9193300000000000  0.2949900000000000  0.3479900000000000
   0.0471500000000000  0.2467100000000000  0.3791000000000000
   0.4534600000000000  0.8921500000000000  0.6395500000000000
   0.5672700000000001  0.8026700000000000  0.6586300000000000
   0.6590400000000000  0.6429100000000000  0.3633600000000000
   0.6107700000000000  0.6490800000000000  0.3042600000000000
   0.7692700000000000  0.3209600000000000  0.1898500000000000
   0.8326700000000000  0.4663000000000000  0.1968700000000000
   0.6500800000000000  0.0273300000000000  0.4226100000000000
   0.6531900000000000  0.1532600000000000  0.4583400000000000
   0.4796300000000000  0.8110200000000000  0.3177700000000000
   0.3531600000000000  0.8916400000000000  0.3290800000000000
   0.4418400000000000  0.0389900000000000  0.7977900000000000
   0.3689000000000000  0.9744600000000000  0.7529800000000000
   0.1951800000000000  0.4671100000000000  0.7777100000000000
   0.0511200000000000  0.5281600000000000  0.7857900000000000
   0.4499600000000000  0.1802800000000000  0.4715600000000000
   0.3232100000000000  0.2329300000000000  0.4946000000000000
   0.0489700000000000  0.4430700000000000  0.3706700000000000
   0.1497400000000000  0.5471600000000000  0.3402700000000000
   0.5009800000000000  0.4385100000000000  0.5711700000000000
   0.5049800000000000  0.2797800000000000  0.5912800000000000
   0.7850900000000000  0.2599600000000000  0.8131800000000000
   0.6941600000000000  0.3200900000000000  0.7721900000000000
   0.3235200000000000  0.5159300000000000  0.7009600000000000
   0.2982700000000000  0.3675700000000000  0.7203300000000000
   0.8357300000000000  0.9147300000000000  0.4092100000000000
   0.7342200000000000  0.8106500000000000  0.4173300000000000
   0.4121900000000000  0.1035100000000000  0.6090300000000000
   0.4782700000000000  0.1775700000000000  0.6527400000000000
   0.1500100000000000  0.7650800000000000  0.1898800000000000
   0.2028000000000000  0.6069400000000000  0.1884900000000000
   0.0664600000000000  0.9888800000000000  0.4202400000000000
   0.0543600000000000  0.8355100000000000  0.4308300000000000
   0.0215300000000000  0.8912900000000000  0.2605700000000000
   0.9926100000000000  0.8213500000000000  0.3092900000000000
   0.2210000000000000  0.7208200000000000  0.4330100000000000
   0.1135800000000000  0.6270100000000000  0.4117400000000000
   0.7039500000000000  0.9371200000000000  0.2755600000000000
   0.6921000000000000  0.9199000000000001  0.3367600000000000
   0.3038100000000000  0.3209900000000000  0.3323100000000000
   0.2478100000000000  0.3848800000000000  0.2811500000000000
   0.5292600000000000  0.8242699999999999  0.7383900000000000
   0.5357200000000000  0.7508800000000000  0.7917700000000000
   0.0291300000000000  0.0548800000000000  0.5281300000000000
   0.9652300000000000  0.9547900000000000  0.4923400000000000
   0.7773200000000000  0.2060100000000000  0.5622800000000000
   0.8147900000000000  0.0701200000000000  0.5371400000000000
   0.1512700000000000  0.9800300000000000  0.3098600000000000
   0.2709400000000000  0.0661400000000000  0.2866900000000000
   0.3046600000000000  0.1621600000000000  0.7321400000000000
   0.2973400000000000  0.1721600000000000  0.6764700000000000
   0.8462499999999999  0.6864000000000000  0.3261100000000000
   0.9814800000000000  0.6290200000000000  0.3381800000000000
   0.2291800000000000  0.6186800000000000  0.2631500000000000
   0.3076400000000000  0.6696299999999999  0.3075700000000000
   0.2350100000000000  0.0770500000000000  0.3731100000000000
   0.2655000000000000  0.1076000000000000  0.4309400000000000
   0.6589100000000000  0.3646100000000000  0.6291900000000000
   0.7227100000000000  0.4378500000000000  0.6788999999999999
   0.9281500000000000  0.4238400000000000  0.4396400000000000
   0.8154000000000000  0.4128200000000000  0.4823000000000000
   0.8458300000000000  0.0337500000000000  0.6121300000000000
   0.7610500000000000  0.0369600000000000  0.6625600000000000
   0.8783000000000000  0.6270300000000000  0.7484000000000000
   0.9316400000000000  0.7121200000000000  0.7949400000000000
   0.5740200000000000  0.3882800000000000  0.2133400000000000
   0.5139300000000000  0.5219100000000000  0.2128000000000000
   0.1581900000000000  0.6313600000000000  0.4926300000000000
   0.1381600000000000  0.5460500000000000  0.5419000000000000
   0.5933000000000000  0.2954600000000000  0.3409300000000000
   0.5631900000000000  0.2064700000000000  0.3873500000000000
   0.6835700000000000  0.6647300000000000  0.2291900000000000
   0.5340000000000000  0.7404400000000000  0.2243900000000000
   0.0483900000000000  0.7464499999999999  0.6481000000000000
   0.0221400000000000  0.7117300000000000  0.7066200000000000
   0.2248600000000000  0.1093800000000000  0.5583100000000000
   0.1482500000000000  0.2414900000000000  0.5433300000000000
   0.8126400000000000  0.1428600000000000  0.3006700000000000
   0.9201000000000000  0.0485700000000000  0.3020700000000000
   0.4335500000000000  0.8423200000000000  0.1624600000000000
   0.3375700000000000  0.7917800000000000  0.2017700000000000
   0.5631300000000000  0.4925500000000000  0.8071100000000000
   0.4825700000000000  0.4410400000000000  0.7622100000000001
   0.8100700000000000  0.6000799999999999  0.4503900000000000
   0.6911300000000000  0.6469800000000000  0.4710500000000000
   0.4634400000000000  0.8373100000000000  0.4853600000000000
   0.5617400000000000  0.9583400000000000  0.4921400000000000
   0.0669600000000000  0.8792500000000000  0.5706100000000000
   0.1537500000000000  0.7493300000000001  0.5579700000000000
   0.1212600000000000  0.9045400000000000  0.7460300000000000
   0.2213000000000000  0.8560900000000000  0.7927700000000000
   0.6211800000000000  0.7754100000000000  0.5306100000000000
   0.6043200000000000  0.6414900000000000  0.5507500000000000
   0.5239900000000000  0.0721500000000000  0.2856700000000000
   0.4505300000000000  0.2005400000000000  0.2995400000000000
   0.4123000000000000  0.4235400000000000  0.4419200000000000
   0.5030100000000000  0.4325800000000000  0.4004900000000000
   0.9301500000000000  0.9232100000000000  0.1932900000000000
   0.0718200000000000  0.9618000000000000  0.1694900000000000
   0.3393000000000000  0.4053300000000000  0.1915600000000000
   0.2330300000000000  0.3991800000000000  0.1515000000000000
   0.3693900000000000  0.7330600000000000  0.6761900000000000
   0.2322700000000000  0.6632000000000000  0.6750800000000000
   0.6417100000000000  0.1760000000000000  0.7113100000000000
   0.5651100000000000  0.0510200000000000  0.7158500000000000
   0.0480700000000000  0.2181800000000000  0.2182900000000000
   0.9789900000000000  0.2694600000000000  0.7332600000000000
