274
traj_8500
Cu    9.401183    10.174007    26.145097
Cu    1.689602    2.545444    26.125281
Cu    9.317858    10.167975    3.369598
Cu    1.597382    2.245986    3.218728
Cu    1.636131    10.159080    26.028312
Cu    9.384007    2.386463    26.230441
Cu    1.581535    10.168793    3.272629
Cu    9.432059    2.489315    3.593128
Cu    3.045802    1.336570    24.332020
Cu    0.153359    3.671096    24.270721
Cu    3.071157    1.355178    1.386891
Cu    0.482773    3.672220    1.598003
Cu    0.444126    1.170125    24.250904
Ag    2.773642    3.884980    23.988798
Cu    0.392598    1.189142    1.425995
Cu    2.949084    3.840710    1.545951
Cu    4.294038    10.133316    26.201376
Cu    6.735403    2.483897    26.001890
Cu    4.112768    0.125141    3.485326
Cu    6.780490    2.433595    3.399455
Cu    6.724361    10.103769    26.100444
Cu    4.261424    2.470810    25.964635
Cu    6.935485    0.000307    3.460225
Cu    4.285041    2.507718    3.360878
Cu    8.012982    1.303241    24.380108
Cu    5.524178    3.899702    24.375616
Cu    7.999588    1.198650    1.594039
Cu    5.449441    3.685409    1.538025
Cu    5.487781    1.092015    24.141517
Cu    8.028522    3.755852    24.575102
Cu    5.532357    1.071158    1.572902
Cu    8.067577    3.697985    1.670927
Cu    9.458028    5.034964    26.349075
Cu    1.658521    7.681421    26.149589
Cu    9.371227    4.968100    3.260739
Cu    1.859318    7.670890    3.315433
Cu    1.735507    4.940393    26.258712
Cu    9.264080    7.639912    26.161743
Cu    1.618341    5.031795    3.405267
Cu    9.448213    7.763110    3.241979
Cu    2.841937    6.440648    24.550794
Cu    0.395460    8.768323    24.350515
Cu    2.843982    6.236579    1.510810
Cu    0.568653    8.919024    1.517944
Cu    0.381454    6.129433    24.548680
Cu    2.955218    8.996521    24.365576
Cu    0.399959    6.453428    1.514773
Cu    3.153153    9.022081    1.580564
Cu    4.222471    5.096103    26.215644
Cu    6.897145    7.552293    26.306536
Ag    4.151721    5.099477    3.594977
Cu    6.711070    7.554951    3.409495
Cu    6.838153    4.999487    26.318690
Cu    4.317348    7.613534    26.216437
Cu    6.713115    4.880890    3.370126
Cu    4.281054    7.641650    3.402097
Cu    8.098965    6.239544    24.572724
Cu    5.498720    8.796541    24.390412
Cu    8.034861    6.338614    1.732226
Cu    5.510273    8.922398    1.677269
Cu    5.568447    6.284120    24.405737
Cu    8.051730    9.058682    24.329113
Cu    5.417951    6.231978    1.655338
Cu    8.121355    8.998361    1.574223
 O    5.942744    7.225026    6.479203
 H    5.668744    7.747876    5.666991
 H    5.619873    7.695734    7.291415
 O    8.861565    6.136691    6.084194
 H    8.800324    6.185255    5.131945
 H    9.834574    6.103157    6.354755
 O    1.453021    0.849606    16.889207
 H    0.905020    0.419896    17.549757
 H    2.036601    0.146713    16.533038
 O    4.088129    0.289234    5.568436
 H    3.439013    9.821487    6.045618
 H    3.740925    1.203864    5.803064
 O    0.930068    0.660771    6.467049
 H    1.109498    0.401493    5.499475
 H    0.771802    1.690931    6.420018
 O    6.882014    3.500970    13.023932
 H    6.843061    2.712401    13.699014
 H    7.702482    3.323381    12.503155
 O    1.174113    4.715365    16.985118
 H    0.861466    4.424188    16.047137
 H    0.658010    5.511602    17.156597
 O    7.909822    1.106533    21.160851
 H    8.190060    0.939167    20.145190
 H    7.053878    1.603108    21.157681
 O    6.381145    3.863510    21.198106
 H    7.411816    3.936406    21.311193
 H    6.196604    4.183722    20.275450
 O    2.115529    7.288005    14.227983
 H    2.770677    6.666085    14.569883
 H    2.508127    7.521825    13.353415
 O    7.378486    3.513648    17.476832
 H    7.419484    4.060217    16.610719
 H    8.276656    3.798690    17.844626
 O    0.348124    1.296697    22.113629
 H    9.630812    1.453941    21.800792
 H    0.888866    2.044780    21.735794
 O    6.186686    5.172373    19.085932
 H    5.278702    5.432980    18.676126
 H    6.540331    4.607605    18.345587
 O    7.699619    3.526632    9.077014
 H    7.643797    4.572230    9.052970
 H    7.845003    3.289642    8.111026
 O    7.787238    5.287085    15.388173
 H    7.270522    4.799405    14.702522
 H    8.648397    5.156322    14.977839
 O    9.130045    3.542684    11.331075
 H    8.766381    3.267967    10.431406
 H    9.734686    2.877005    11.727933
 O    4.368161    7.978118    17.254623
 H    3.978119    8.582760    16.579012
 H    5.144053    8.437785    17.728634
 O    4.185358    5.167364    9.072786
 H    4.471116    6.116141    9.049799
 H    4.696553    4.645945    8.430203
 O    7.757895    3.021674    6.348678
 H    7.662609    2.155607    5.874139
 H    8.545749    3.434106    5.906638
 O    4.260095    0.534812    13.487374
 H    4.849911    1.157959    14.069451
 H    4.904200    10.083219    13.161855
 O    2.761169    8.102645    11.417739
 H    3.265718    7.994170    10.616888
 H    2.422246    9.061340    11.316543
 O    4.755238    9.368057    21.356903
 H    4.797463    0.145486    21.236418
 H    3.875472    9.083833    21.044330
 O    9.627438    6.962680    21.310664
 H    9.192206    7.063693    20.414166
 H    8.821385    7.350882    21.736058
 O    2.579388    3.527961    13.217077
 H    3.303956    3.853695    12.605144
 H    3.128616    3.426131    14.065487
 O    8.926896    6.057763    12.353870
 H    9.096715    5.121458    12.104182
 H    9.533991    6.601572    11.767302
 O    4.082914    3.307023    15.909743
 H    4.267865    4.261117    15.804584
 H    3.484714    3.162559    16.763702
 O    3.019015    5.979857    21.087927
 H    2.439831    6.444942    21.751912
 H    2.977506    6.270625    20.121938
 O    9.825679    3.261629    18.924758
 H    0.236990    3.666393    18.277947
 H    9.948570    3.800735    19.722702
 O    6.485122    9.418154    12.561547
 H    7.313667    9.696040    13.096329
 H    6.320926    8.444532    12.737518
 O    2.995194    2.462835    18.365140
 H    2.328187    1.787342    18.152971
 H    3.820160    1.982312    18.614827
 O    1.637562    5.308862    8.378680
 H    2.626929    5.116857    8.667473
 H    1.248134    5.881605    9.140955
 O    8.546260    9.730086    14.409238
 H    9.146301    0.338104    14.376210
 H    9.167873    8.978016    14.279770
 O    9.121457    9.071258    9.191157
 H    9.049072    9.173599    8.234945
 H    8.252119    9.475306    9.591979
 O    9.720782    7.319188    14.645450
 H    0.483590    7.183210    14.553238
 H    9.285244    6.739288    13.969311
 O    4.418156    8.234431    9.042665
 H    3.760453    8.684181    8.473007
 H    5.168999    8.883036    9.213616
 O    2.835087    1.829465    8.987443
 H    3.728043    1.602801    9.243208
 H    2.878335    2.110008    8.005602
 O    5.551578    6.478988    22.225658
 H    4.597483    6.372659    21.920748
 H    5.966464    5.682341    21.849937
 O    7.225946    9.913400    16.641368
 H    7.743275    0.235252    17.292406
 H    7.868518    9.727223    15.913178
 O    5.659542    1.239750    18.291686
 H    6.356710    1.757182    17.814505
 H    5.358959    0.672221    17.526241
 O    1.338615    10.168589    10.049608
 H    0.497086    10.026579    9.590922
 H    1.821797    0.537061    9.418386
 O    2.310090    2.931294    21.062297
 H    2.316020    3.918821    20.907729
 H    2.535016    2.580819    20.152059
 O    7.480214    6.227071    8.803810
 H    8.019320    6.899701    9.249550
 H    7.687862    6.307635    7.875606
 O    0.472037    6.926897    10.340514
 H    10.192819    7.757282    9.998085
 H    1.300991    7.309680    10.771193
 O    0.974440    1.504242    12.404601
 H    0.971373    1.004907    11.555397
 H    1.824762    1.876904    12.704754
 O    6.079744    1.837746    15.095945
 H    6.346690    1.049074    15.562030
 H    5.400264    2.294857    15.649486
 O    10.207440    4.118085    14.463139
 H    0.796442    4.302422    13.972746
 H    10.148550    3.107554    14.522852
 O    6.138327    8.931395    19.168104
 H    6.387279    9.905426    19.115524
 H    5.689396    8.980776    20.038973
 O    7.564664    8.609239    22.077431
 H    6.700949    8.130965    22.188931
 H    7.418769    9.561596    21.894062
 O    3.641958    2.942234    6.073361
 H    2.865555    3.443818    5.805178
 H    4.256721    3.635823    6.395445
 O    10.133112    1.567119    14.714412
 H    0.362233    1.457519    13.807609
 H    0.353236    1.135875    15.487520
 O    5.577342    2.049279    8.920860
 H    6.253142    2.670789    9.341762
 H    5.822204    1.971168    7.998204
 O    5.544625    4.519986    6.869456
 H    6.369694    3.996318    6.549485
 H    5.696041    5.450157    6.446704
 O    8.089047    7.076166    19.281983
 H    7.442999    6.264490    19.232838
 H    7.431548    7.844185    19.395862
 O    8.550043    0.922196    18.717345
 H    9.327775    0.241080    18.669521
 H    9.089252    1.809835    18.830959
 O    6.510171    9.919023    10.089769
 H    6.149983    0.547388    9.781689
 H    6.572741    9.935279    11.116792
 O    1.443717    6.838869    6.455159
 H    1.897863    6.510886    5.657743
 H    1.575707    6.195377    7.249668
 O    3.513034    5.938552    18.541110
 H    3.579387    6.874755    18.115187
 H    2.982005    5.489110    17.922571
 O    6.199671    6.847559    12.804101
 H    7.125956    6.505468    12.515573
 H    5.557099    6.243940    12.266678
 O    6.638378    0.355792    5.698169
 H    5.711479    0.151109    5.894748
 H    7.374601    9.946014    6.130168
 O    3.206113    9.662915    15.453964
 H    2.826295    8.901950    14.919975
 H    3.607605    10.211222    14.673722
 O    10.014719    7.227377    17.475511
 H    9.180040    7.079949    18.016369
 H    9.746239    7.311418    16.520620
 O    1.436560    8.797053    21.148697
 H    1.225948    9.541761    21.780183
 H    0.717002    8.121968    21.284242
 O    4.587566    6.098556    15.191329
 H    5.037213    6.192105    14.306192
 H    4.802984    6.923625    15.706558
 O    2.506287    9.026681    7.081360
 H    1.899294    9.832631    7.011870
 H    1.913914    8.223083    6.801287
 O    4.757692    4.618749    11.843397
 H    5.592576    4.096308    12.121092
 H    4.568243    4.686942    10.846495
 O    8.879559    9.244757    6.438513
 H    8.948775    8.256515    6.228194
 H    9.483587    9.895713    6.054866
 O    0.332277    3.431243    6.577228
 H    0.813925    4.001226    7.289566
 H    0.641039    3.806767    5.707416
 O    0.378284    9.512828    18.790534
 H    0.751559    9.377872    19.699979
 H    0.238115    8.621304    18.510989
 O    9.309781    4.444227    21.366150
 H    9.331149    5.452917    21.395743
 H    9.544113    4.285654    22.307830
 O    4.922808    1.763214    21.661020
 H    5.481033    2.601471    21.493769
 H    4.004906    2.148246    21.828271
