Generated from /home/shaofl/projects/03_CuAg_SAA/explicit/double-side/bader/1k/calc_t950_i950/traj_950.cif by cif2poscar.py
   1.00000000000000
    10.2239000000000004  0.0000000000000000  0.0000000000000000
     0.0000000000000006 10.2239000000000004  0.0000000000000000
     0.0000000000000016  0.0000000000000016 26.4220000000000006
 Cu Ag O H K
    62    2    68    136    2
Direct
   0.9805800000000000  0.0065600000000000  0.9475600000000000
   0.2286000000000000  0.2599100000000000  0.9445800000000000
   0.9625899999999999  0.0195900000000000  0.0817800000000000
   0.2230000000000000  0.2598200000000000  0.0825000000000000
   0.2302300000000000  0.0073400000000000  0.9490800000000000
   0.9799200000000000  0.2768700000000000  0.9469300000000000
   0.2157000000000000  0.0158200000000000  0.0845500000000000
   0.9766899999999999  0.2703200000000000  0.0837800000000000
   0.3514600000000000  0.1304200000000000  0.8796300000000000
   0.1013500000000000  0.3839700000000000  0.8748100000000000
   0.3407400000000000  0.1520000000000000  0.0152400000000000
   0.1085000000000000  0.3904000000000000  0.0213300000000000
   0.1016800000000000  0.1379100000000000  0.8769300000000000
   0.1019700000000000  0.1370700000000000  0.0128900000000000
   0.3580800000000000  0.3825900000000000  0.0141500000000000
   0.4778700000000000  0.0154100000000000  0.9451200000000000
   0.7308400000000000  0.2553900000000000  0.9510700000000000
   0.4786700000000000  0.0256800000000000  0.0856100000000000
   0.7245500000000000  0.2717600000000000  0.0886000000000000
   0.7323900000000000  0.0112300000000000  0.9431100000000000
   0.4746900000000000  0.2692500000000000  0.9490900000000000
   0.7271300000000001  0.0211600000000000  0.0873000000000000
   0.4660300000000000  0.2579100000000000  0.0870900000000000
   0.8604100000000000  0.1361900000000000  0.8869700000000000
   0.6125699999999999  0.3900900000000000  0.8823100000000000
   0.8608500000000000  0.1492000000000000  0.0161000000000000
   0.6075800000000000  0.3918300000000000  0.0167100000000000
   0.6119599999999999  0.1423900000000000  0.8801700000000000
   0.8493700000000000  0.3936800000000000  0.8772000000000000
   0.5991700000000000  0.1401000000000000  0.0143400000000000
   0.8564000000000001  0.3989500000000000  0.0182800000000000
   0.9755600000000000  0.5116700000000000  0.9447400000000000
   0.2209600000000000  0.7561900000000000  0.9521800000000000
   0.9876800000000000  0.5188700000000001  0.0890500000000000
   0.2426800000000000  0.7586000000000001  0.0854500000000000
   0.2319700000000000  0.5124900000000000  0.9457000000000000
   0.9789700000000000  0.7642500000000000  0.9478700000000000
   0.2293400000000000  0.5030300000000000  0.0799500000000000
   0.9829900000000000  0.7606100000000000  0.0819000000000000
   0.3576700000000000  0.6415000000000000  0.8756699999999999
   0.1144700000000000  0.8857800000000000  0.8817199999999999
   0.3560600000000000  0.6342700000000000  0.0163200000000000
   0.0966600000000000  0.8881000000000000  0.0175900000000000
   0.1152300000000000  0.6389400000000000  0.8781700000000000
   0.3634600000000000  0.8745500000000000  0.8819000000000000
   0.0996200000000000  0.6366000000000001  0.0159600000000000
   0.3539500000000000  0.8925200000000000  0.0164900000000000
   0.4769400000000000  0.5184400000000000  0.9468200000000000
   0.7313000000000000  0.7678199999999999  0.9476400000000000
   0.7254100000000000  0.7543100000000000  0.0832300000000000
   0.7429000000000000  0.5220800000000000  0.9489100000000000
   0.4846300000000000  0.7548200000000000  0.9518500000000000
   0.7357700000000000  0.5092200000000000  0.0845600000000000
   0.4772200000000000  0.7724500000000000  0.0841700000000000
   0.8727000000000000  0.6374400000000000  0.8794000000000000
   0.6099000000000000  0.8838300000000000  0.8834700000000000
   0.8568300000000000  0.6480300000000000  0.0194800000000000
   0.6038600000000000  0.8921000000000000  0.0214600000000000
   0.6100100000000001  0.6300500000000000  0.8816900000000000
   0.8574000000000001  0.8805400000000000  0.8687200000000000
   0.6045199999999999  0.6363900000000000  0.0136400000000000
   0.8560000000000000  0.8997300000000000  0.0160900000000000
   0.3623400000000000  0.3801200000000000  0.8710100000000000
   0.4714400000000000  0.5188800000000000  0.1050500000000000
   0.7437600000000000  0.9445800000000000  0.1939700000000000
   0.8556500000000000  0.6282600000000000  0.1863600000000000
   0.3469100000000000  0.9325000000000000  0.5953600000000000
   0.6288300000000000  0.1916300000000000  0.1868300000000000
   0.2779700000000000  0.0890400000000000  0.1921000000000000
   0.6739000000000001  0.3399700000000000  0.4855100000000000
   0.4251000000000000  0.5774200000000000  0.5755400000000001
   0.7618200000000001  0.9270000000000000  0.7809400000000000
   0.9780000000000000  0.4563300000000000  0.6333500000000000
   0.4277500000000000  0.7380200000000000  0.4245500000000000
   0.0633900000000000  0.3635000000000000  0.5464800000000000
   0.9973200000000000  0.9854000000000001  0.7353900000000000
   0.7627600000000000  0.5575300000000000  0.7124300000000000
   0.7564000000000000  0.3605400000000000  0.3126100000000000
   0.7182100000000000  0.7294600000000000  0.6412000000000000
   0.0026000000000000  0.3124800000000000  0.3873700000000000
   0.4899500000000000  0.8106300000000000  0.6751000000000000
   0.7072900000000000  0.5961500000000000  0.3388900000000000
   0.8219100000000000  0.3859200000000000  0.2184400000000000
   0.6104900000000000  0.0876800000000000  0.4487500000000000
   0.4492000000000000  0.8339900000000000  0.3309200000000000
   0.3781100000000000  0.0562700000000000  0.7731300000000000
   0.1059700000000000  0.4562300000000000  0.7943800000000000
   0.3360200000000000  0.2264400000000000  0.4560500000000000
   0.0997700000000000  0.5439000000000001  0.3588200000000000
   0.5454900000000000  0.3462000000000000  0.5742500000000000
   0.7146700000000000  0.2552700000000000  0.7697600000000000
   0.3356800000000000  0.4630300000000000  0.7436600000000000
   0.7713900000000000  0.9208900000000000  0.3919700000000000
   0.4335600000000000  0.1593600000000000  0.6371300000000000
   0.1790300000000000  0.6859600000000000  0.2067700000000000
   0.0249600000000000  0.9219600000000000  0.4187300000000000
   0.0502100000000000  0.9130700000000000  0.2833000000000000
   0.1601900000000000  0.6865300000000000  0.4371600000000000
   0.6792500000000000  0.9412400000000000  0.3072100000000000
   0.2604700000000000  0.3205700000000000  0.2950000000000000
   0.5466100000000000  0.7740899999999999  0.7687900000000000
   0.9816700000000000  0.0300900000000000  0.5203000000000000
   0.7821000000000000  0.1361400000000000  0.5745600000000000
   0.2781900000000000  0.0185200000000000  0.3137300000000000
   0.2642000000000000  0.2226300000000000  0.7158300000000000
   0.9267300000000001  0.6763100000000000  0.2856500000000000
   0.3171700000000000  0.6060800000000000  0.2968600000000000
   0.1730500000000000  0.1202600000000000  0.3956100000000000
   0.7327900000000001  0.3442100000000000  0.6427500000000000
   0.9133800000000000  0.4289300000000000  0.4765400000000000
   0.8191800000000000  0.9822400000000000  0.6542900000000000
   0.9488600000000000  0.6740300000000000  0.7611400000000000
   0.4797500000000000  0.4712400000000000  0.2021100000000000
   0.1908200000000000  0.5906000000000000  0.5307700000000000
   0.5519900000000000  0.2762500000000000  0.3612500000000000
   0.6140900000000000  0.6853500000000000  0.2404300000000000
   0.0415300000000000  0.7027400000000000  0.6589500000000000
   0.2107600000000000  0.1654700000000000  0.5416900000000000
   0.9169100000000000  0.1357000000000000  0.3144800000000000
   0.4277700000000000  0.8396500000000000  0.1994000000000000
   0.5770400000000000  0.4747200000000000  0.7756800000000000
   0.7364000000000001  0.6696900000000000  0.4396800000000000
   0.4896300000000000  0.9063300000000000  0.5054000000000000
   0.0947300000000000  0.8410900000000000  0.5725900000000000
   0.2218300000000000  0.8440400000000000  0.7613900000000000
   0.6476200000000000  0.6842600000000000  0.5409600000000000
   0.4891900000000000  0.1180000000000000  0.2707100000000000
   0.4684800000000000  0.4644900000000000  0.4302800000000000
   0.0230500000000000  0.9060900000000000  0.1815700000000000
   0.2100900000000000  0.4393700000000000  0.1915100000000000
   0.3180900000000000  0.6211000000000000  0.6618900000000000
   0.6151000000000000  0.1037800000000000  0.7016900000000000
   0.7127300000000000  0.0384000000000000  0.1878600000000000
   0.7132900000000000  0.9072700000000000  0.1610500000000000
   0.9302200000000000  0.6540800000000000  0.2063700000000000
   0.8745400000000000  0.6701600000000000  0.1490200000000000
   0.2574400000000000  0.9035100000000000  0.5894200000000001
   0.3845400000000000  0.9065600000000000  0.5633100000000000
   0.5829600000000000  0.1873700000000000  0.2197700000000000
   0.5627100000000000  0.1771300000000000  0.1593200000000000
   0.3091100000000000  0.1190700000000000  0.1583800000000000
   0.3369100000000000  0.0168500000000000  0.1987000000000000
   0.6019200000000000  0.3857100000000000  0.4687800000000000
   0.6479700000000000  0.3381100000000000  0.5216400000000000
   0.3425500000000000  0.5906100000000000  0.5546500000000000
   0.3840200000000000  0.6006600000000000  0.6107300000000000
   0.6854600000000000  0.8629400000000000  0.7714600000000000
   0.7146200000000000  0.9916000000000000  0.8014400000000000
   0.9850600000000000  0.5443000000000000  0.6444000000000000
   0.8914400000000000  0.4235000000000000  0.6311300000000000
   0.4657700000000000  0.6524500000000000  0.4194900000000000
   0.4314000000000000  0.7778000000000000  0.3903900000000000
   0.0055900000000000  0.3959600000000000  0.5165100000000000
   0.0392900000000000  0.3987700000000000  0.5817500000000000
   0.9496500000000000  0.9802800000000000  0.7049900000000000
   0.9405300000000000  0.9530300000000000  0.7612500000000000
   0.6847700000000000  0.5454000000000000  0.7365400000000000
   0.7203600000000000  0.6178100000000000  0.6878200000000000
   0.7310600000000000  0.4541400000000000  0.3280000000000000
   0.7670900000000000  0.3854500000000000  0.2764500000000000
   0.7661900000000000  0.8114300000000000  0.6472900000000000
   0.6994800000000000  0.7134900000000000  0.6055400000000000
   0.9317200000000000  0.2983000000000000  0.3640700000000000
   0.0527100000000000  0.2308500000000000  0.3879900000000000
   0.4418400000000000  0.8582600000000000  0.6479900000000000
   0.5725600000000000  0.7845600000000000  0.6601900000000001
   0.7105600000000000  0.6268500000000000  0.3749500000000000
   0.6382100000000001  0.6421100000000000  0.3199300000000000
   0.7680200000000000  0.3272800000000000  0.1975900000000000
   0.8355600000000000  0.4704900000000000  0.1984800000000000
   0.6817000000000000  0.0291900000000000  0.4336800000000000
   0.6545700000000000  0.1536900000000000  0.4709200000000000
   0.5440300000000000  0.8742100000000000  0.3248600000000000
   0.3893000000000000  0.9063900000000000  0.3228800000000000
   0.4233900000000000  0.0513300000000000  0.8047299999999999
   0.3310400000000000  0.9755600000000000  0.7682800000000000
   0.1905700000000000  0.4650300000000000  0.7754300000000000
   0.0573200000000000  0.5315400000000000  0.7853500000000000
   0.4227600000000000  0.1884600000000000  0.4518100000000000
   0.2982500000000000  0.1991300000000000  0.4879900000000000
   0.0743400000000000  0.4524200000000000  0.3676000000000000
   0.1830900000000000  0.5475100000000001  0.3387300000000000
   0.4824400000000000  0.4259700000000000  0.5732200000000000
   0.5040300000000000  0.2830300000000000  0.5981600000000000
   0.7174700000000001  0.2190500000000000  0.8034300000000000
   0.6482900000000000  0.3329200000000000  0.7730399999999999
   0.3350400000000000  0.5176800000000000  0.7123900000000000
   0.2999600000000000  0.3695000000000000  0.7333100000000000
   0.8694600000000000  0.9271400000000000  0.3956400000000000
   0.7570800000000000  0.8396500000000000  0.4084700000000000
   0.4100900000000000  0.0729800000000000  0.6260100000000000
   0.5189700000000000  0.1444700000000000  0.6555700000000000
   0.1383100000000000  0.7422900000000000  0.1822100000000000
   0.1768700000000000  0.5997500000000000  0.1904700000000000
   0.0821600000000000  0.9998899999999999  0.4160800000000000
   0.0751400000000000  0.8446000000000000  0.4272700000000000
   0.0494600000000000  0.9128500000000001  0.2460400000000000
   0.0063700000000000  0.8265600000000000  0.2941600000000000
   0.2576700000000000  0.6955700000000000  0.4322900000000000
   0.1367500000000000  0.6277199999999999  0.4062700000000000
   0.7255000000000000  0.9028400000000000  0.2796800000000000
   0.7399700000000000  0.9412100000000000  0.3396100000000000
   0.2537100000000000  0.2868900000000000  0.3312100000000000
   0.2939900000000000  0.4110200000000000  0.3010000000000000
   0.4756400000000000  0.8095000000000000  0.7477700000000000
   0.5028800000000000  0.7570100000000000  0.8022400000000000
   0.0603600000000000  0.0757300000000000  0.5308400000000000
   0.9923999999999999  0.0103700000000000  0.4841100000000000
   0.8039800000000000  0.2235800000000000  0.5872300000000000
   0.8453400000000000  0.1217200000000000  0.5489000000000001
   0.1942200000000000  0.9730799999999999  0.3020300000000000
   0.3185600000000000  0.0697100000000000  0.2857000000000000
   0.3171000000000000  0.1768300000000000  0.7427100000000000
   0.3138800000000000  0.2112700000000000  0.6854800000000000
   0.8415000000000000  0.6647400000000000  0.2994900000000000
   0.9875000000000000  0.6304900000000000  0.3118500000000000
   0.2795100000000000  0.6529500000000000  0.2675500000000000
   0.3930400000000000  0.6575500000000000  0.3090800000000000
   0.2134200000000000  0.0904500000000000  0.3635600000000000
   0.2434900000000000  0.1559600000000000  0.4159800000000000
   0.6703700000000000  0.3623300000000000  0.6140600000000001
   0.7151200000000000  0.4146200000000000  0.6694900000000000
   0.9427600000000000  0.3866900000000000  0.4415300000000000
   0.8230400000000000  0.4015500000000000  0.4822800000000000
   0.8072500000000000  0.0299800000000000  0.6194300000000000
   0.7541200000000000  0.0330500000000000  0.6763300000000000
   0.8718900000000001  0.6427700000000000  0.7414200000000000
   0.9087400000000000  0.7066600000000000  0.7918100000000000
   0.5445700000000000  0.3977900000000000  0.2031300000000000
   0.5213500000000000  0.5426700000000000  0.2236300000000000
   0.1682800000000000  0.6106100000000000  0.4941100000000000
   0.1515700000000000  0.5076800000000000  0.5358900000000000
   0.6211100000000001  0.2926400000000000  0.3353600000000000
   0.5879700000000000  0.2263300000000000  0.3890400000000000
   0.6784300000000000  0.6868200000000000  0.2149100000000000
   0.5596800000000000  0.7651300000000000  0.2325100000000000
   0.0261100000000000  0.7598100000000000  0.6292400000000000
   0.0059500000000000  0.7452000000000000  0.6873000000000000
   0.2656100000000000  0.1366900000000000  0.5713000000000000
   0.1715800000000000  0.2513800000000000  0.5491700000000000
   0.8269000000000000  0.1480700000000000  0.3070900000000000
   0.9461700000000000  0.0434000000000000  0.3108000000000000
   0.4605800000000000  0.8455600000000000  0.1646700000000000
   0.3629200000000000  0.7729900000000000  0.1929300000000000
   0.5903500000000000  0.4950800000000000  0.8110300000000000
   0.4806000000000000  0.4840900000000000  0.7654500000000000
   0.8144200000000000  0.6223100000000000  0.4537200000000000
   0.6772300000000000  0.6683600000000000  0.4703800000000000
   0.4587800000000000  0.8549900000000000  0.4783900000000000
   0.5357000000000000  0.9855500000000000  0.4916900000000000
   0.0442500000000000  0.8887400000000000  0.5439100000000000
   0.1081400000000000  0.7580600000000000  0.5586000000000000
   0.1426300000000000  0.8940300000000000  0.7625600000000000
   0.2183300000000000  0.7926000000000000  0.7940600000000000
   0.6196600000000000  0.7738100000000000  0.5302100000000000
   0.5718600000000000  0.6385999999999999  0.5547000000000000
   0.5524500000000000  0.0561200000000000  0.2879200000000000
   0.4691200000000000  0.1842700000000000  0.2965500000000000
   0.3913600000000000  0.4092400000000000  0.4368600000000000
   0.5134800000000000  0.4264900000000000  0.4017400000000000
   0.9349499999999999  0.9404300000000000  0.1726900000000000
   0.0803500000000000  0.9697600000000000  0.1611000000000000
   0.3020300000000000  0.4335100000000000  0.2029000000000000
   0.2113300000000000  0.4131500000000000  0.1556300000000000
   0.3809400000000000  0.6880300000000000  0.6764000000000000
   0.2301300000000000  0.6614800000000000  0.6617400000000000
   0.6370000000000000  0.1621300000000000  0.7314000000000001
   0.5512700000000000  0.0323700000000000  0.7079299999999999
   0.0506000000000000  0.2369200000000000  0.2201000000000000
   0.0057000000000000  0.2775200000000000  0.7291299999999999
