 # Version information for this restart file 
 # current date 2026-02-04 17:38:38.810
 # current working dir /share/home/chem-wangyg/shaofl/projects/03_CuAg_SAA/small/explicit/00_initial_stru/PZC/potential
 # Program compiled at                              Wed Jan 18 08:16:45 CST 2023
 # Program compiled on                                                    node02
 # Program compiled for                                       Linux-x86-64-intel
 # Source code revision number                                       git:e635599
 &GLOBAL
   PRINT_LEVEL  LOW
   PROJECT_NAME md
   RUN_TYPE  MD
 &END GLOBAL
 &MOTION
   &MD
     ENSEMBLE  NVT
     STEPS  20000
     TIMESTEP     9.9999999999999989E-01
     STEP_START_VAL  1940
     TIME_START_VAL     1.9399999999999725E+03
     ECONS_START_VAL    -4.2587918525659225E+03
     TEMPERATURE     3.0014999999999998E+02
     &THERMOSTAT
       TYPE  NOSE
       REGION  GLOBAL
       &NOSE
         LENGTH  3
         TIMECON     2.2237606346543473E+01
         &COORD
              -1.6298128403995672E-02    1.1562829502342151E+01   -5.5233503967264355E+00
         &END COORD
         &VELOCITY
              -4.2724325014874480E-06   -2.2493628595727751E-04   -1.1059759400364011E-03
         &END VELOCITY
         &MASS
               6.5794693026716483E+05    8.0335400521021347E+02    8.0335400521021347E+02
         &END MASS
         &FORCE
               7.5806532104921172E-08   -1.1682392405103303E-06   -1.1325926712640047E-06
         &END FORCE
       &END NOSE
     &END THERMOSTAT
     &AVERAGES  T
       &RESTART_AVERAGES
         ITIMES_START  1
         AVECPU     5.0479495836233653E+01
         AVEHUGONIOT     0.0000000000000000E+00
         AVETEMP_BARO     0.0000000000000000E+00
         AVEPOT    -4.2591869579939539E+03
         AVEKIN     3.8965535879204538E-01
         AVETEMP     3.0047199933102178E+02
         AVEKIN_QM     0.0000000000000000E+00
         AVETEMP_QM     0.0000000000000000E+00
         AVEVOL     1.8637835790265963E+04
         AVECELL_A     1.9320371010009204E+01
         AVECELL_B     1.9320371010009204E+01
         AVECELL_C     4.9930343883102410E+01
         AVEALPHA     9.0000000000000000E+01
         AVEBETA     9.0000000000000000E+01
         AVEGAMMA     9.0000000000000000E+01
         AVE_ECONS     1.6382302424481219E+00
         AVE_PRESS     0.0000000000000000E+00
         AVE_PXX     0.0000000000000000E+00
       &END RESTART_AVERAGES
     &END AVERAGES
     &PRINT
       &ENERGY  SILENT
       &END ENERGY
     &END PRINT
   &END MD
   &PRINT
     &TRAJECTORY  SILENT
       &EACH
         MD  5
       &END EACH
     &END TRAJECTORY
     &VELOCITIES  SILENT
       &EACH
         MD  5
       &END EACH
     &END VELOCITIES
     &RESTART  SILENT
       &EACH
         MD  10
       &END EACH
     &END RESTART
   &END PRINT
 &END MOTION
 &FORCE_EVAL
   METHOD  QS
   &DFT
     BASIS_SET_FILE_NAME BASIS_MOLOPT
     POTENTIAL_FILE_NAME GTH_POTENTIALS
     WFN_RESTART_FILE_NAME ./pt-RESTART.wfn
     UKS  T
     CHARGE  0
     &SCF
       MAX_SCF  60
       EPS_SCF     1.0000000000000001E-05
       CHOLESKY  INVERSE
       SCF_GUESS  RESTART
       ADDED_MOS  100
       &DIAGONALIZATION  T
         ALGORITHM  STANDARD
       &END DIAGONALIZATION
       &OUTER_SCF  T
         EPS_SCF     1.0000000000000001E-05
         MAX_SCF  50
       &END OUTER_SCF
       &SMEAR  T
         METHOD  FERMI_DIRAC
       &END SMEAR
       &MIXING  T
         METHOD  BROYDEN_MIXING
         ALPHA     2.9999999999999999E-01
         BETA     1.5000000000000000E+00
         NBUFFER  32
       &END MIXING
       &PRINT
         &RESTART_HISTORY  SILENT
           ADD_LAST  NUMERIC
           FILENAME = MD_RESTART_HISTORY.wfn
           BACKUP_COPIES  5
           &EACH
           &END EACH
         &END RESTART_HISTORY
       &END PRINT
     &END SCF
     &QS
       EPS_DEFAULT     9.9999999999999998E-13
       EPS_PGF_ORB     9.9999999999999995E-07
       EXTRAPOLATION  ASPC
       EXTRAPOLATION_ORDER  3
     &END QS
     &MGRID
       NGRIDS  5
       CUTOFF     4.5000000000000000E+02
       REL_CUTOFF     6.0000000000000000E+01
     &END MGRID
     &XC
       DENSITY_CUTOFF     1.0000000000000000E-10
       GRADIENT_CUTOFF     1.0000000000000000E-10
       TAU_CUTOFF     1.0000000000000000E-10
       &XC_GRID
         XC_SMOOTH_RHO  NN10
         XC_DERIV  NN10_SMOOTH
       &END XC_GRID
       &XC_FUNCTIONAL  NO_SHORTCUT
         &PBE  T
         &END PBE
       &END XC_FUNCTIONAL
       &VDW_POTENTIAL
         POTENTIAL_TYPE  PAIR_POTENTIAL
         &PAIR_POTENTIAL
           R_CUTOFF     1.0000000000000002E+01
           TYPE  DFTD3
           PARAMETER_FILE_NAME dftd3.dat
           REFERENCE_FUNCTIONAL PBE
         &END PAIR_POTENTIAL
       &END VDW_POTENTIAL
     &END XC
     &PRINT
       &V_HARTREE_CUBE  SILENT
         ADD_LAST  NUMERIC
         FILENAME POTENTIAL
         STRIDE  8 8 1
         APPEND  T
         &EACH
           MD  50
           GEO_OPT  0
         &END EACH
       &END V_HARTREE_CUBE
       &MULLIKEN  SILENT
         FILENAME =CHARGE.mulliken
         &EACH
           MD  5
         &END EACH
       &END MULLIKEN
     &END PRINT
   &END DFT
   &SUBSYS
     &CELL
       A     1.0223900000000002E+01    0.0000000000000000E+00    0.0000000000000000E+00
       B     0.0000000000000000E+00    1.0223900000000002E+01    0.0000000000000000E+00
       C     0.0000000000000000E+00    0.0000000000000000E+00    2.6422000000000001E+01
       PERIODIC  XYZ
       MULTIPLE_UNIT_CELL  1 1 1
     &END CELL
     &COORD
Cu    9.6789689516587014E+00   -2.1137982254749307E-01    2.5589905571626172E+01
Cu    2.1037625418020358E+00    2.4600118501729629E+00    2.5690790572575281E+01
Cu    9.7722727699708560E+00    1.0179032806707735E+01    2.6354802179632211E+00
Cu    2.1990861725987720E+00    2.5041118070748398E+00    2.8025669943273956E+00
Cu    1.9515155130161814E+00    1.0185982111965060E+01    2.5665219470863104E+01
Cu    9.8496711827712158E+00    2.5359411979902111E+00    2.5502909229303249E+01
Cu    1.9375772692613022E+00    1.0258436332688394E+01    2.7247085441197103E+00
Cu    9.7724279106449021E+00    2.5890337936386163E+00    2.7956777433374107E+00
Cu    3.2963739951077295E+00    1.1070563870533481E+00    2.4028380482280269E+01
Cu    8.8287694691644292E-01    3.8922785870069618E+00    2.3819288508827874E+01
Cu    3.3533729169463173E+00    1.1368379148407515E+00    1.0830359993700303E+00
Cu    7.4397687683002300E-01    3.8267009369391900E+00    8.9330290317642480E-01
Cu    7.8451905662537569E-01    1.3274707144585201E+00    2.3753061497973285E+01
Ag    3.5530122572238114E+00    3.7233016561819299E+00    2.3735877196253163E+01
Cu    8.7310499652488582E-01    1.2569368430802532E+00    1.0000575529366329E+00
Cu    3.2772099891943163E+00    3.6950124039380507E+00    8.7365534912084408E-01
Cu    4.7206300885233832E+00    1.0130251145399354E+01    2.5585649294975983E+01
Cu    7.3454067790372948E+00    2.4304126691432297E+00    2.5634725233833247E+01
Cu    4.5552754434002143E+00    1.0321671352632015E+01    2.8588226983621441E+00
Cu    7.1831307157504476E+00    2.6474391064456197E+00    2.8029250601857765E+00
Cu    7.1224850203578489E+00    1.0277581910041071E+01    2.5429587769934408E+01
Cu    4.7630167479148975E+00    2.5101917809987735E+00    2.5731815329854815E+01
Cu    7.2286548462191478E+00    1.0211306655033274E+01    2.8659927168789170E+00
Cu    4.5967886012266828E+00    2.5999134082069899E+00    2.7029151554267989E+00
Cu    8.3514447052682677E+00    1.2791747004084602E+00    2.3797724877973323E+01
Cu    6.1356229780786213E+00    3.6949191114239150E+00    2.3991955153283985E+01
Cu    8.5364479764935854E+00    1.2416508974611358E+00    1.0809087231860040E+00
Cu    5.9788954190605859E+00    3.8215166544923695E+00    1.1244504595657041E+00
Cu    5.7821089690064706E+00    1.2861920689873272E+00    2.3844321281269913E+01
Cu    8.5925108841809319E+00    3.8658859822455027E+00    2.3830923177137930E+01
Cu    6.0408481341961826E+00    1.2614867099456655E+00    1.0941237638043773E+00
Cu    8.4866445489150735E+00    3.7157929976214152E+00    1.0412340240744791E+00
Cu    9.7352601183898777E+00    5.1063483291789744E+00    2.5635504810803621E+01
Cu    1.9508890756440531E+00    7.5828383712845167E+00    2.5644741858384876E+01
Cu    9.6610858557718782E+00    5.0333319299802719E+00    2.7748616039257281E+00
Cu    2.0612486928627209E+00    7.5809674260193010E+00    2.7728814203756631E+00
Cu    2.0610024300975471E+00    5.1871293858686780E+00    2.5605289220452974E+01
Cu    9.5879355928350769E+00    7.5056787592541259E+00    2.5618701967904965E+01
Cu    2.0107311424642478E+00    5.0450939825664376E+00    2.6254648136427132E+00
Cu    9.6789149964679080E+00    7.6124336857555637E+00    2.9306473404971620E+00
Cu    3.3421974358098434E+00    6.4814975938787134E+00    2.3946008293732756E+01
Cu    8.2975287310915880E-01    8.9646189691157492E+00    2.3799841202395591E+01
Cu    3.4034213860553062E+00    6.3253033343142189E+00    9.6998439852379303E-01
Cu    7.6734694316073593E-01    8.9781223447303269E+00    9.6744166425040623E-01
Cu    7.2043815586595539E-01    6.3130108761119050E+00    2.3833750600406866E+01
Cu    3.2165978277794269E+00    8.8833973277964926E+00    2.3903352461144362E+01
Cu    7.6996326222863554E-01    6.4071221882906650E+00    1.0346164302327356E+00
Cu    3.3109839051851369E+00    9.0204647181969477E+00    9.3136241893052385E-01
Cu    4.7228255086860695E+00    5.0927795915465497E+00    2.5722329510356079E+01
Cu    7.1427683975097986E+00    7.5982738780076220E+00    2.5537424245640167E+01
Ag    4.6976814023573841E+00    5.1968523003122007E+00    3.1243124413804573E+00
Cu    6.9037708154565465E+00    7.6033232221438931E+00    3.0543417294283630E+00
Cu    7.3790361257295380E+00    5.0764760545140506E+00    2.5754382912858855E+01
Cu    4.6283423866634168E+00    7.5945342268811400E+00    2.5625631488894442E+01
Cu    7.2737839099376842E+00    5.2337663946397548E+00    2.9276328731213543E+00
Cu    4.5746467554070946E+00    7.8457520389016908E+00    2.5456404043684482E+00
Cu    8.4489838499460035E+00    6.3054994154497415E+00    2.3748813028413011E+01
Cu    5.7352503654719742E+00    8.7879562840731928E+00    2.3681129806233084E+01
Cu    8.4192650565976361E+00    6.4239037372164001E+00    1.0461128952715606E+00
Cu    5.8768850161464119E+00    8.9361010569775061E+00    9.4859384146309345E-01
Cu    5.9237850732124748E+00    6.1317133343495422E+00    2.3678396998274980E+01
Cu    8.3851919416230860E+00    8.8732879686104074E+00    2.3844985722327539E+01
Cu    5.9503650801802719E+00    6.3350301436866969E+00    9.5768402366867289E-01
Cu    8.3394643911383017E+00    8.8560778902145163E+00    1.1387656644209780E+00
O    5.6400567829561465E+00    7.2333812845407826E+00    5.7158721577209484E+00
H    5.4923548193772458E+00    7.0484523847567289E+00    4.7313494041908415E+00
H    4.8328418643844486E+00    6.6490247657439765E+00    5.9918584983433991E+00
O    8.4598123668504481E+00    6.4130503380418569E+00    5.6867938448381787E+00
H    7.4892074334088505E+00    6.4857349882571738E+00    6.0137760737543831E+00
H    8.4370966288297282E+00    6.3525190414358947E+00    4.7252499031035091E+00
O    2.2922786815949889E+00    1.0967889486797802E+00    1.6378004849046487E+01
H    2.2097657029258992E+00    2.2980549022564059E-01    1.6913130314839222E+01
H    2.8340284037841665E+00    8.6115872705757412E-01    1.5577002992561889E+01
O    4.6313072197681189E+00    1.0565169842533709E+01    5.0195816186363622E+00
H    4.0311833975989977E+00    9.9632269522624011E+00    5.6235776825938393E+00
H    4.2817689899316544E+00    1.2403341188325752E+00    5.2895872478475852E+00
O    8.1222394052451152E-01    1.0618474628987725E+01    5.9330611164578091E+00
H    5.2374848410580355E-01    1.1697085351594783E+00    6.3884521524024906E+00
H    7.7611145148506355E-01    1.0865821251201004E+01    5.0181829616002496E+00
O    7.2669626625747821E+00    3.1599389612178492E+00    1.2856553297615035E+01
H    6.8223470601053169E+00    2.4991914938889277E+00    1.3458507388120193E+01
H    7.9155860376745260E+00    2.7252480308029967E+00    1.2206574145536887E+01
O    1.9141215160745324E+00    4.9624699877722280E+00    1.6851447143136500E+01
H    2.2802120032009547E+00    4.5384817962008954E+00    1.6028331069865448E+01
H    1.4136947271313469E+00    5.7896512464241319E+00    1.6628850498475153E+01
O    8.3958884623424179E+00    1.0520580049479138E+00    2.0299180026455517E+01
H    8.6082057727311714E+00    7.2419272144649172E-01    1.9385368346398632E+01
H    8.0532855448581522E+00    1.9311302240443513E+00    2.0268990641564201E+01
O    7.4895671575022984E+00    3.5647343411245003E+00    2.0623182025361679E+01
H    8.4107256627825357E+00    3.8660563150537142E+00    2.0897450331687143E+01
H    7.1720283748437907E+00    3.8954954151536185E+00    1.9658229462421684E+01
O    2.7169359470666046E+00    8.0957556356797014E+00    1.2985037966310673E+01
H    3.4777258517442040E+00    7.5140968225044000E+00    1.3416983549306687E+01
H    2.7556672870058625E+00    7.8814493738567259E+00    1.2027326350891210E+01
O    8.4916188033180244E+00    2.1517379756932278E+00    1.6751574561747159E+01
H    9.2671178851013885E+00    2.3713189701564024E+00    1.6051203692018060E+01
H    8.7545547280192171E+00    2.6680976048954084E+00    1.7551359002577595E+01
O    7.4502802505497434E-01    1.0136618432457181E+00    2.1425073796888839E+01
H    1.0137529108355254E+01    1.2937169327445901E+00    2.0982094634530089E+01
H    1.5539061976997737E+00    1.5440240285059867E+00    2.1056729318464797E+01
O    6.5756492423044310E+00    4.6432619790771517E+00    1.8584470608720050E+01
H    5.6632349874780177E+00    5.0654262641793153E+00    1.8531987624975791E+01
H    7.0626900528684606E+00    5.0096949120990804E+00    1.7779126864319757E+01
O    7.0370025419359505E+00    2.4638449908077904E+00    8.8120060027179345E+00
H    6.6666813691854152E+00    3.3796894477273871E+00    8.8273643479726704E+00
H    7.4108709182261787E+00    2.3604598324772139E+00    7.9397983603745832E+00
O    7.4514732722691877E+00    5.7707357054188062E+00    1.6246119691743726E+01
H    7.5154775545637467E+00    6.8032784933783796E+00    1.6028276781088522E+01
H    8.1776057621120621E+00    5.3206984521933149E+00    1.5725800447845874E+01
O    9.0276069643983465E+00    2.6899150747442300E+00    1.0825670945536080E+01
H    8.5051939225847235E+00    2.3394178785722990E+00    1.0101324954728170E+01
H    9.8273065953940542E+00    2.0697714718899873E+00    1.0812440152085912E+01
O    5.0899891899254479E+00    8.3863359324797440E+00    1.6872166560116924E+01
H    4.8689197337387702E+00    9.2799605697412471E+00    1.6643720570255521E+01
H    6.0900386488674023E+00    8.4092477101652925E+00    1.6755567751100831E+01
O    5.4281665600548017E+00    4.5385811251731170E+00    8.9240910885507105E+00
H    5.7761306484053065E+00    5.4198059824545588E+00    8.6609157327168962E+00
H    4.6649625143786606E+00    4.2995254525418005E+00    8.3569399980429964E+00
O    8.2170909644810912E+00    2.3621631307686020E+00    6.1884692727459862E+00
H    7.9128128187915978E+00    1.7297206335002653E+00    5.4700554448402103E+00
H    9.1193568445639119E+00    2.7113076366023612E+00    5.9064547551061253E+00
O    3.9298408307914645E+00    2.1036246551806026E+00    1.2347815320446479E+01
H    4.2371019275666262E+00    3.0554537360671707E+00    1.2274550601230116E+01
H    4.4019740827859621E+00    1.6567662708709379E+00    1.1584737027435320E+01
O    2.5604483471699093E+00    8.1361352567332386E+00    1.0165000974903908E+01
H    3.4225389028655906E+00    8.1601326463412729E+00    9.4546762332502237E+00
H    2.4544258351233750E+00    9.0908382683392492E+00    1.0403248345545133E+01
O    5.8794171575872500E+00    9.4508917146823634E+00    2.0347849043580375E+01
H    6.2258328521517941E+00    1.0266093291633497E+01    2.0788917938133686E+01
H    4.9287750201910052E+00    9.4657500602686646E+00    2.0522716090133848E+01
O    1.1491311764118825E+01    7.0639014744455952E+00    2.0801832726775437E+01
H    1.0770712298936964E+01    6.8758469030869831E+00    2.0094989646083135E+01
H    1.0945583915935483E+01    7.4277593984965700E+00    2.1512874188118658E+01
O    3.3913029230118692E+00    4.1026047420300253E+00    1.4615836334310774E+01
H    3.6207198046267175E+00    5.0361818925212365E+00    1.4481659563035164E+01
H    4.2825247975799901E+00    3.6262070730724059E+00    1.4850156381189288E+01
O    8.8492928999150706E+00    5.4894132330541767E+00    1.0552802785121582E+01
H    8.8754530544046588E+00    4.5161128086907540E+00    1.0323254258693281E+01
H    9.5291617278717506E+00    5.8809144275382916E+00    9.9842141121558630E+00
O    5.6452075982653893E+00    3.5692861618982348E+00    1.5811002560198853E+01
H    6.1819141153753421E+00    4.4271613052109320E+00    1.5943877063423237E+01
H    5.2089266768065867E+00    3.3320475871905977E+00    1.6670188729221582E+01
O    3.3758743645111049E+00    5.3380569083754494E+00    2.0848437610625325E+01
H    2.5466753485299782E+00    5.8146822286617903E+00    2.1144887012854664E+01
H    3.4363185047580131E+00    5.6243412592138595E+00    1.9860110014279194E+01
O    9.9823473059716932E+00    3.8906596271633087E+00    1.8328668564053505E+01
H    1.0851383008716788E+01    4.0333791930379217E+00    1.7796253789476324E+01
H    1.0327056773701775E+01    3.7594663623980740E+00    1.9284620423337657E+01
O    7.1914611830397259E+00    9.3499320485950577E+00    1.1434892117768266E+01
H    7.6137555527636236E+00    9.5785784078559910E+00    1.2269914983360364E+01
H    6.6914667933228733E+00    8.4959812960060521E+00    1.1596152070166017E+01
O    4.0216259831219245E+00    2.4999899099164677E+00    1.7920651120602294E+01
H    3.2856190024381187E+00    2.1972000870089050E+00    1.7312243881992817E+01
H    4.6846695595295138E+00    1.7567029989921841E+00    1.7780543022308894E+01
O    6.9282391572026170E-01    5.8269348450656420E+00    7.0309104158534943E+00
H    5.2901618189057131E-01    6.3301548101535241E+00    7.9841389236657125E+00
H   -1.5018888710646749E-01    5.9371727647080101E+00    6.5122436519548108E+00
O    8.8975144633050647E+00   -6.5196902189324046E-01    1.4037648275359148E+01
H    9.4983450315976974E+00    1.3001304010047415E-01    1.4241874157191093E+01
H    9.4172961144116378E+00    8.7947539856834762E+00    1.3820310706380381E+01
O   -1.1625535772253357E+00    9.5196354828643983E+00    9.5981811260836931E+00
H    8.8614843983028848E+00    9.5260200474992676E+00    8.6616261600258184E+00
H    8.2209668001167699E+00    9.4163041114839015E+00    1.0210135000815805E+01
O   -1.2074556220558037E-02    7.0860377557462026E+00    1.3655523985869607E+01
H    8.6400741462479291E-01    7.1518278926690471E+00    1.3138103620804189E+01
H    9.7353377124647036E+00    6.2334474864827900E+00    1.3590966775009830E+01
O    4.5178655124836711E+00    8.5824608332166079E+00    8.6239631596349966E+00
H    3.9952485532756961E+00    8.8710807837311787E+00    7.7510481913195530E+00
H    4.8633240187283473E+00    9.3448061992936449E+00    9.0671327555849022E+00
O    2.9148248687016456E+00    3.8373475223102869E+00    7.9630951858356465E+00
H    3.1971070109852993E+00    3.6096900135867225E+00    7.0316790029965164E+00
H    2.0981503388396301E+00    4.3474097485649574E+00    7.8674463261901861E+00
O    5.8059960844701584E+00    5.6888639216543773E+00    2.1538257505299047E+01
H    4.7835091957118081E+00    5.6223192315022850E+00    2.1429519552702367E+01
H    6.3426269100528510E+00    4.8262295188463904E+00    2.1342299146763452E+01
O    7.8470264642081924E+00    8.3985111426334349E+00    1.6263095425419223E+01
H    8.4584750338606458E+00    8.8912323532426196E+00    1.6920917966327345E+01
H    8.0813909508115476E+00    8.8630559079381097E+00    1.5420731991331200E+01
O    5.8069876704289243E+00    6.5776985644436414E-01    1.8034015352582767E+01
H    5.8786309805417574E+00    1.5630600720451335E-01    1.8895416989204609E+01
H    6.6973252682584006E+00    1.0455212387740216E+00    1.7944871926571899E+01
O    9.9566698188603509E-01    8.0998197725753229E-01    1.0576758198268742E+01
H    2.8431172052471376E-01    3.1389913855066048E-01    1.0190917798774219E+01
H    1.6718813265048291E+00    1.0224218717064200E+00    9.9195929021131501E+00
O    3.2510766229841952E+00    2.3531668718736833E+00    2.0654008298247433E+01
H    3.2774429926477744E+00    3.3407414619417906E+00    2.0782351493447354E+01
H    3.3039087985676829E+00    2.2882128380429481E+00    1.9649363468484470E+01
O    6.7314514627289999E+00    6.6616038181096346E+00    8.7446782895397153E+00
H    6.5422688327500866E+00    7.5990199119499930E+00    8.6400857811733598E+00
H    7.1913359100481857E+00    6.3940197378137356E+00    9.6133693047026902E+00
O    2.9807872834858795E-01    7.2227897783166943E+00    9.1428611863115066E+00
H   -3.6544763952603893E-01    7.9747419505020511E+00    9.3991647532050582E+00
H    1.1716700596513803E+00    7.4790660705851311E+00    9.6630683539510915E+00
O    1.1808237551085217E+00    3.1348293532349056E+00    1.2847146170885607E+01
H    1.7303110596146674E+00    2.5123203247246462E+00    1.2339153103805787E+01
H    1.8237005242838724E+00    3.5861307670551938E+00    1.3439056195455072E+01
O    6.5450596278509430E+00    1.3641307569596843E+00    1.4522396179352473E+01
H    5.7755542677604259E+00    8.1915931159587452E-01    1.4469669104890302E+01
H    6.2470521229261520E+00    2.1430854234470864E+00    1.5154744148724337E+01
O    9.0380448185134163E+00    4.5004447019538834E+00    1.4187496859049407E+01
H    8.2744172557766724E+00    4.1336035936582007E+00    1.3708886465171071E+01
H    9.7784738876057684E+00    4.0672747797142828E+00    1.3724259019163506E+01
O    7.3818728875070905E+00    7.2752374552721726E+00    2.0055895022868182E+01
H    6.6938832689055259E+00    7.9934444839017518E+00    1.9839641728765379E+01
H    6.8575258153865155E+00    6.6894239561118374E+00    2.0630519163951117E+01
O    8.7149862162547258E+00    8.9435512301152702E+00    2.1749188218132574E+01
H    8.1983784770264236E+00    8.2810747009077303E+00    2.1182308547568049E+01
H    8.4741148391907597E+00    9.8063977739994375E+00    2.1356189784505929E+01
O    3.7795754540749673E+00    2.9838685823208748E+00    5.6512992546086993E+00
H    3.3738122782024078E+00    3.1318955110814120E+00    4.7839431172620879E+00
H    4.6196889460559243E+00    3.5700993672855308E+00    5.6609530011163205E+00
O    1.0284049230027403E+01    1.5608310050507330E+00    1.4805718672017658E+01
H    4.5657586272790301E-01    2.0158827058436763E+00    1.3992318369094752E+01
H    8.4837422086610892E-01    1.3140558969158069E+00    1.5271553894774568E+01
O    2.7827487838790699E+00    1.1173106092026319E+00    8.7278883775597951E+00
H    3.6269985486807608E+00    1.0748158784194333E+00    9.3013310481791773E+00
H    2.7651608046456122E+00    2.0515982442932583E+00    8.4364528833651384E+00
O    6.0946081407314976E+00    4.3242450998521429E+00    5.8253284551185489E+00
H    6.7218864847446671E+00    3.5335229174636060E+00    5.7223453177052299E+00
H    6.1201360337267827E+00    4.8173506134144901E+00    4.9800944908200977E+00
O    9.6256347166227396E+00    6.5806862272776252E+00    1.8856800547386658E+01
H    9.6117296089218751E+00    5.5885156226187824E+00    1.8648528366138780E+01
H    8.6705279316843242E+00    6.8403279978062672E+00    1.9067170712402937E+01
O    9.1223245977488361E+00   -7.2281460206998174E-02    1.7863471361482269E+01
H    1.0110682638398655E+01   -3.0163697918057308E-01    1.8003149025406948E+01
H    9.0440836116258154E+00    7.8493658430363522E-01    1.7286373607140504E+01
O    5.2881827976717659E+00    7.4247740319413336E-01    1.0263826217965272E+01
H    5.9772638092889601E+00    1.0911803037049623E+00    9.6913249442814422E+00
H    5.8144574123292072E+00    1.5905878000583254E-01    1.0938337872080782E+01
O    2.8930088058247523E+00    6.4394372339358288E+00    5.6601492699088993E+00
H    2.8187663141637267E+00    6.1765386165310154E+00    4.6758082911532259E+00
H    2.0829134166545162E+00    6.1525840427433867E+00    6.1082784230662943E+00
O    4.0480023615587362E+00    6.1060842974150473E+00    1.8375614935682236E+01
H    4.2293387967472649E+00    7.0093465926430696E+00    1.7921582126968385E+01
H    3.4569857443449936E+00    5.6273293325603211E+00    1.7733514104786238E+01
O    6.4510591867997142E+00    6.7801820597047717E+00    1.2160507682801949E+01
H    7.3301438766575826E+00    6.3563918126598811E+00    1.2195620104730008E+01
H    5.8267787197911867E+00    6.1250346581410140E+00    1.1705720621411551E+01
O    7.1518381576660692E+00    1.0235701265757287E+01    4.9309048732554936E+00
H    6.2555070057501663E+00    1.0249413712310295E+01    5.3266541732691213E+00
H    7.7584579468217951E+00    9.7123559763871157E+00    5.5323545831916645E+00
O    3.8346752826270509E+00    1.0428990215590995E+01    1.4223503760736564E+01
H    3.4710470220008283E+00    9.6170034154971429E+00    1.3866501418125965E+01
H    3.7388363797095989E+00    8.6761730077400079E-01    1.3472474716723131E+01
O    8.2516837319321701E-01    7.1952848168757750E+00    1.6394805408461806E+01
H    1.0198818827177860E+01    7.1470676839726641E+00    1.6941765183809906E+01
H    5.4885991676917623E-01    7.6504400627867275E+00    1.5564654645174205E+01
O    3.1912015539866587E+00    9.1926804796653734E+00    2.0311559523030276E+01
H    2.6850469534974257E+00    9.9062890484758466E+00    2.0717566993031642E+01
H    2.9267781094195704E+00    8.4582898032146741E+00    2.0839807446871337E+01
O    4.5051658966277319E+00    6.8110345766687805E+00    1.4509688217014876E+01
H    5.3612496005408010E+00    6.7445901135163373E+00    1.4047565798294206E+01
H    4.6364953924100618E+00    7.2011743676174929E+00    1.5377311543098156E+01
O    3.1530922025628669E+00    8.9973887317573364E+00    6.4500525723708169E+00
H    2.2560648143386675E+00    9.5744060966250739E+00    6.4899899923304485E+00
H    2.8956935211381567E+00    8.0794659275871616E+00    6.0775306553703086E+00
O    5.0890377516187932E+00    4.4512172775084258E+00    1.1670386745501576E+01
H    5.8813656484363852E+00    3.9670368604932116E+00    1.1994771736602644E+01
H    5.1106364274522784E+00    4.4080197021990095E+00    1.0690248514975705E+01
O    8.8227282570054459E+00    8.8963408566613822E+00    6.6353109609221104E+00
H    8.9550366783362048E+00    7.9841514683186396E+00    6.2449195758774545E+00
H   -6.8976848351663489E-01    9.5031007136589594E+00    6.2391887983404200E+00
O    3.4586111527608770E-01    3.1842054112271745E+00    5.8268823050985450E+00
H    2.7851711907416765E-01    4.0332307823489444E+00    6.3314912605354632E+00
H    8.3944499788307458E-01    3.3840811763079692E+00    4.9914241037707230E+00
O    1.7649851776763181E+00    9.2349019428337726E+00    1.7818520969432395E+01
H    2.2433677713794320E+00    9.0952270645037760E+00    1.8696578048812459E+01
H    1.5206978393276498E+00    8.3383221308736761E+00    1.7512104907787279E+01
O    1.0175439514079857E+01    4.0638943580042568E+00    2.0979859494613155E+01
H    1.0777929946254851E+01    4.9024675044967161E+00    2.1108331091478561E+01
H    1.0375939332719057E+01    3.7467080402534192E+00    2.1921941291237307E+01
O    5.6235502431470445E+00    1.7046747225573133E+00    2.1689529151709088E+01
H    6.2526641646047443E+00    2.4405065832960653E+00    2.1517528252813896E+01
H    4.7617108849851011E+00    1.8647044414544867E+00    2.1187822717007869E+01
     &END COORD
     &VELOCITY
           8.6834708366716090E-05   -1.0565482175660638E-04    6.7697267693364946E-06
           3.7723165941090165E-05   -9.3885283670684937E-05   -4.6327801223435118E-05
          -2.5500486041438372E-05    1.0227862867086144E-05   -1.4149659080130310E-04
           1.5457702839220667E-04   -1.6157399887472857E-04   -2.6207591104895308E-05
          -6.5247486493326207E-06    1.3755771625886562E-04   -1.6867602063397488E-05
           1.2243790194070055E-04   -3.8754296208872021E-05    9.1915820633265745E-06
           6.9032818166716003E-05   -6.8284251594576728E-05   -1.0695814328425360E-04
           2.5317158838227786E-05   -6.6240960876173553E-05   -4.0683570064508751E-05
          -4.8966094552220354E-05   -1.6911415930916145E-04    6.6732545976978808E-05
          -1.3849514779542548E-05   -1.3303818167110265E-04    8.0880918634531215E-06
          -4.3947546976163138E-05   -1.1277712251179079E-04   -8.5763433618049221E-05
          -2.5660576864107909E-04    2.5537434097720003E-06   -8.5846964173357478E-05
           1.9297218643989414E-04    5.1636659004983516E-05    1.9587128566984438E-04
           2.2921858372307054E-05    9.7023826796336984E-05   -5.6349227037831486E-05
          -6.9831972954802990E-05    8.3155925635455535E-06    9.7864881603234314E-05
          -4.8527105239528875E-05   -7.1834152690929565E-05    9.3549152700114172E-05
          -2.1022080435763989E-05   -1.1261919682895906E-04   -1.3251814149911945E-04
          -1.2039841039485655E-04   -6.0799916195741371E-06   -4.9238597635393890E-05
           2.4166665537431314E-04   -6.1124872424860130E-05   -4.7563589008516716E-05
           6.9383010267236561E-05   -7.5032301429925963E-06   -9.4089901659894480E-05
           6.2944135149818121E-05   -1.2378599527010338E-05    2.2470547429449783E-05
           3.0426375203744887E-05   -3.6472866802734921E-05   -4.9204357477994124E-05
          -1.9703985854112962E-05    5.9263229082526364E-05   -1.5268812644283035E-04
          -6.0898088237329379E-07   -6.8308536492933992E-05    1.0359310801166180E-04
          -7.9960239817558661E-05   -5.7384583701345028E-05   -1.2035577703919636E-04
          -1.6302524906824830E-04   -5.3010872170573992E-05   -6.2610821346390950E-05
           5.8856994559333436E-06   -1.0470652640867655E-04   -2.9176930640009564E-05