 # Version information for this restart file 
 # current date 2026-02-04 04:24:31.067
 # current working dir /share/home/chem-wangyg/shaofl/projects/03_CuAg_SAA/small/explicit/00_initial_stru/PZC/potential
 # Program compiled at                              Wed Jan 18 08:16:45 CST 2023
 # Program compiled on                                                    node02
 # Program compiled for                                       Linux-x86-64-intel
 # Source code revision number                                       git:e635599
 &GLOBAL
   PRINT_LEVEL  LOW
   PROJECT_NAME md
   RUN_TYPE  MD
 &END GLOBAL
 &MOTION
   &MD
     ENSEMBLE  NVT
     STEPS  20000
     TIMESTEP     9.9999999999999989E-01
     STEP_START_VAL  1000
     TIME_START_VAL     9.9999999999999272E+02
     ECONS_START_VAL    -4.2587918525659225E+03
     TEMPERATURE     3.0014999999999998E+02
     &THERMOSTAT
       TYPE  NOSE
       REGION  GLOBAL
       &NOSE
         LENGTH  3
         TIMECON     2.2237606346543473E+01
         &COORD
              -3.6587732652894736E-02   -4.9693937554297580E+00   -1.3948750938593027E-01
         &END COORD
         &VELOCITY
               2.8527477367606124E-05    1.3465690061679550E-03   -1.1460384256479861E-03
         &END VELOCITY
         &MASS
               6.5794693026716483E+05    8.0335400521021347E+02    8.0335400521021347E+02
         &END MASS
         &FORCE
               4.8845835717494713E-08   -5.1667290970260880E-07    6.3005908436789503E-07
         &END FORCE
       &END NOSE
     &END THERMOSTAT
     &AVERAGES  T
       &RESTART_AVERAGES
         ITIMES_START  1
         AVECPU     5.0282362393498431E+01
         AVEHUGONIOT     0.0000000000000000E+00
         AVETEMP_BARO     0.0000000000000000E+00
         AVEPOT    -4.2591889315781809E+03
         AVEKIN     3.8733656806010969E-01
         AVETEMP     2.9868392771456837E+02
         AVEKIN_QM     0.0000000000000000E+00
         AVETEMP_QM     0.0000000000000000E+00
         AVEVOL     1.8637835790265832E+04
         AVECELL_A     1.9320371010009655E+01
         AVECELL_B     1.9320371010009655E+01
         AVECELL_C     4.9930343883104747E+01
         AVEALPHA     9.0000000000000000E+01
         AVEBETA     9.0000000000000000E+01
         AVEGAMMA     9.0000000000000000E+01
         AVE_ECONS     8.0761108061094133E-01
         AVE_PRESS     0.0000000000000000E+00
         AVE_PXX     0.0000000000000000E+00
       &END RESTART_AVERAGES
     &END AVERAGES
     &PRINT
       &ENERGY  SILENT
       &END ENERGY
     &END PRINT
   &END MD
   &PRINT
     &TRAJECTORY  SILENT
       &EACH
         MD  5
       &END EACH
     &END TRAJECTORY
     &VELOCITIES  SILENT
       &EACH
         MD  5
       &END EACH
     &END VELOCITIES
     &RESTART  SILENT
       &EACH
         MD  10
       &END EACH
     &END RESTART
   &END PRINT
 &END MOTION
 &FORCE_EVAL
   METHOD  QS
   &DFT
     BASIS_SET_FILE_NAME BASIS_MOLOPT
     POTENTIAL_FILE_NAME GTH_POTENTIALS
     WFN_RESTART_FILE_NAME ./pt-RESTART.wfn
     UKS  T
     CHARGE  0
     &SCF
       MAX_SCF  60
       EPS_SCF     1.0000000000000001E-05
       CHOLESKY  INVERSE
       SCF_GUESS  RESTART
       ADDED_MOS  100
       &DIAGONALIZATION  T
         ALGORITHM  STANDARD
       &END DIAGONALIZATION
       &OUTER_SCF  T
         EPS_SCF     1.0000000000000001E-05
         MAX_SCF  50
       &END OUTER_SCF
       &SMEAR  T
         METHOD  FERMI_DIRAC
       &END SMEAR
       &MIXING  T
         METHOD  BROYDEN_MIXING
         ALPHA     2.9999999999999999E-01
         BETA     1.5000000000000000E+00
         NBUFFER  32
       &END MIXING
       &PRINT
         &RESTART_HISTORY  SILENT
           ADD_LAST  NUMERIC
           FILENAME = MD_RESTART_HISTORY.wfn
           BACKUP_COPIES  5
           &EACH
           &END EACH
         &END RESTART_HISTORY
       &END PRINT
     &END SCF
     &QS
       EPS_DEFAULT     9.9999999999999998E-13
       EPS_PGF_ORB     9.9999999999999995E-07
       EXTRAPOLATION  ASPC
       EXTRAPOLATION_ORDER  3
     &END QS
     &MGRID
       NGRIDS  5
       CUTOFF     4.5000000000000000E+02
       REL_CUTOFF     6.0000000000000000E+01
     &END MGRID
     &XC
       DENSITY_CUTOFF     1.0000000000000000E-10
       GRADIENT_CUTOFF     1.0000000000000000E-10
       TAU_CUTOFF     1.0000000000000000E-10
       &XC_GRID
         XC_SMOOTH_RHO  NN10
         XC_DERIV  NN10_SMOOTH
       &END XC_GRID
       &XC_FUNCTIONAL  NO_SHORTCUT
         &PBE  T
         &END PBE
       &END XC_FUNCTIONAL
       &VDW_POTENTIAL
         POTENTIAL_TYPE  PAIR_POTENTIAL
         &PAIR_POTENTIAL
           R_CUTOFF     1.0000000000000002E+01
           TYPE  DFTD3
           PARAMETER_FILE_NAME dftd3.dat
           REFERENCE_FUNCTIONAL PBE
         &END PAIR_POTENTIAL
       &END VDW_POTENTIAL
     &END XC
     &PRINT
       &V_HARTREE_CUBE  SILENT
         ADD_LAST  NUMERIC
         FILENAME POTENTIAL
         STRIDE  8 8 1
         APPEND  T
         &EACH
           MD  50
           GEO_OPT  0
         &END EACH
       &END V_HARTREE_CUBE
       &MULLIKEN  SILENT
         FILENAME =CHARGE.mulliken
         &EACH
           MD  5
         &END EACH
       &END MULLIKEN
     &END PRINT
   &END DFT
   &SUBSYS
     &CELL
       A     1.0223900000000002E+01    0.0000000000000000E+00    0.0000000000000000E+00
       B     0.0000000000000000E+00    1.0223900000000002E+01    0.0000000000000000E+00
       C     0.0000000000000000E+00    0.0000000000000000E+00    2.6422000000000001E+01
       PERIODIC  XYZ
       MULTIPLE_UNIT_CELL  1 1 1
     &END CELL
     &COORD
Cu    9.8311104526327124E+00    5.1956424936046186E-02    2.5603470325420318E+01
Cu    2.1898316161184210E+00    2.5043636419268362E+00    2.5639990260373239E+01
Cu    1.0079711152213115E+01    1.0180279900200121E+01    2.9785139459371739E+00
Cu    2.1061519680642204E+00    2.6693148107317541E+00    2.7463049534886932E+00
Cu    2.3376445282276759E+00    1.0344191176494293E+01    2.5724056003236310E+01
Cu    9.7852556010120662E+00    2.5914305233312134E+00    2.5730125419083151E+01
Cu    2.2902419506694724E+00    1.0233782235493681E+01    3.0158837823405391E+00
Cu    9.7702947034301317E+00    2.4641534481472331E+00    2.7351682090499581E+00
Cu    3.4885521045004695E+00    1.2694149823068837E+00    2.3926634671322681E+01
Cu    6.7118477731501369E-01    3.8879482056733137E+00    2.3876347063509268E+01
Cu    3.4503490077933208E+00    1.3606111776515204E+00    1.2089196789858541E+00
Cu    9.1385979717564347E-01    3.7314491545531459E+00    9.1607372913851626E-01
Cu    9.3303494101008488E-01    1.4450979229330267E+00    2.3773177167892705E+01
Ag    3.4736991567334079E+00    3.9062628378850817E+00    2.3836142875636668E+01
Cu    9.1678555151894303E-01    1.1880852295603921E+00    1.0392019286720684E+00
Cu    3.4986569228363091E+00    3.8579002679693972E+00    1.1927257276175296E+00
Cu    4.8592084921480447E+00    1.0247910237391919E+01    2.5676380188449418E+01
Cu    7.1739665187425565E+00    2.4931264695481450E+00    2.5736556039743633E+01
Cu    4.7756596868114034E+00    1.0176788671047083E+01    3.0060426180286419E+00
Cu    7.3171402560816334E+00    2.6392896205935883E+00    2.8478084067648783E+00
Cu    7.3717140646722532E+00    1.0228471298589652E+01    2.5751107550115204E+01
Cu    4.6421997271352726E+00    2.6144417957457557E+00    2.5805396035974017E+01
Cu    7.4342238202382100E+00    1.0192477817991493E+01    2.9226615532375666E+00
Cu    4.6742716893927909E+00    2.5936906720580621E+00    2.9953373910273360E+00
Cu    8.4415133050525917E+00    1.2827596084671793E+00    2.3988042333784939E+01
Cu    5.9930588945153902E+00    3.8065094842759906E+00    2.4095614504518270E+01
Cu    8.5349285826107977E+00    1.1723271961529145E+00    1.0644191665929246E+00
Cu    5.9996634109738070E+00    3.7924211768785043E+00    1.0182953132535510E+00
Cu    5.9614299493340352E+00    1.4030367141353428E+00    2.3707945920713797E+01
Cu    8.3107569726264234E+00    3.8135029508929210E+00    2.3923047288261806E+01
Cu    5.9297660849218863E+00    1.3110350582318704E+00    1.2810199869706433E+00
Cu    8.5387761731748952E+00    3.8754156291145145E+00    1.0056189617159621E+00
Cu    9.8234848912162338E+00    5.1877019301818681E+00    2.5786586127370541E+01
Cu    2.2424685179135069E+00    7.6349977477875264E+00    2.5663118830162183E+01
Cu    9.8494656529297409E+00    5.0339364248764635E+00    2.8529210992897842E+00
Cu    2.3238117716076960E+00    7.6032586217142137E+00    2.9663619912596459E+00
Cu    2.0858804168492928E+00    4.9763462683312278E+00    2.5739522523080748E+01
Cu    9.9202994212900730E+00    7.7184671776922293E+00    2.5643532783750320E+01
Cu    2.1118781143449987E+00    5.1002569182727662E+00    2.7484368916343453E+00
Cu    1.0082411303264202E+01    7.5165879317958453E+00    2.9997029133447208E+00
Cu    3.4733491267945764E+00    6.4869395167671069E+00    2.3879386938842870E+01
Cu    1.0900056942479184E+00    9.0920611151891979E+00    2.4041621529543264E+01
Cu    3.2411712095860143E+00    6.4213570846673749E+00    1.0772143092112725E+00
Cu    1.0173266896970550E+00    8.9358620109400242E+00    1.0963097045782007E+00
Cu    9.2689485852484821E-01    6.4399375094346372E+00    2.3871284525915325E+01
Cu    3.4863255461607063E+00    8.9856894159393690E+00    2.3916060557163537E+01
Cu    9.1292321070457261E-01    6.3406770718543042E+00    1.0680694035392819E+00
Cu    3.6298107590273090E+00    8.9513866521580212E+00    1.0353851792341593E+00
Cu    4.6606627020788789E+00    5.1946561014329058E+00    2.5885448834387145E+01
Cu    7.3136782004918421E+00    7.7061543569585558E+00    2.5690217626333780E+01
Ag    4.6814297463181136E+00    5.0384591725262036E+00    3.2589417519108412E+00
Cu    7.3640482479509899E+00    7.6927636647929329E+00    2.9324699930367650E+00
Cu    7.2177837315629203E+00    5.1908345516025474E+00    2.5854262972215565E+01
Cu    4.8909608050927469E+00    7.6333050795911168E+00    2.5646284827109096E+01
Cu    7.3338143967526719E+00    5.0804460394364446E+00    2.8893278795180364E+00
Cu    4.7594872684372653E+00    7.5848913206165580E+00    2.8296117310011155E+00
Cu    8.6497934925770803E+00    6.2979613703528550E+00    2.4007197123366293E+01
Cu    6.0400775572845591E+00    8.8637165234050297E+00    2.3831635744530949E+01
Cu    8.5544490490735274E+00    6.3421146267922373E+00    1.0869060555782686E+00
Cu    6.2235665834030911E+00    8.9737010791424510E+00    1.0961143023636581E+00
Cu    6.1123901368525866E+00    6.2726660153479967E+00    2.3856217049191986E+01
Cu    8.6769871322081844E+00    8.8385180318467338E+00    2.3900484992102051E+01
Cu    5.9493214193924473E+00    6.4460310590132233E+00    1.1307776071521434E+00
Cu    8.7473056072067088E+00    8.9651087044756377E+00    1.2615967193290603E+00
O    5.2501342230128776E+00    7.2331871746513565E+00    6.2277684460890947E+00
H    5.5961472188157408E+00    7.2777262868248300E+00    5.2965641477571328E+00
H    4.3231053341792522E+00    6.9210720595194459E+00    6.0539170365156627E+00
O    8.7113202043548945E+00    6.5178487344206646E+00    6.1537701440104993E+00
H    7.9312553046553322E+00    6.2869651242935367E+00    6.7642283815521589E+00
H    8.3382215959005919E+00    6.3622516121321961E+00    5.2803367121123381E+00
O    1.5999423378463198E+00    1.2241488654627275E+00    1.6065502659401520E+01
H    1.4130590575933117E+00    5.1503032798178827E-01    1.6830350765934895E+01
H    1.9874512134728191E+00    6.6611877014021492E-01    1.5361338990226807E+01
O    4.2709481787226915E+00    1.0551379037057993E+01    5.0927135953873996E+00
H    3.7995382422450934E+00    1.0112276572545449E+01    5.9245953145026053E+00
H    3.9363781271909755E+00    1.2213658657882882E+00    5.1965988983237938E+00
O    5.2045018212728134E-01    1.0650333619502796E+01    6.1328909160587006E+00
H    3.8293494423050445E-01    1.4178020136434781E+00    5.9838622125448531E+00
H    7.1389354825498830E-01    1.0286874916629078E+01    5.2455603557295802E+00
O    7.3934542982802691E+00    3.4153117002845121E+00    1.2723958048194362E+01
H    7.3128398293659833E+00    2.8136942525803810E+00    1.3518801558664263E+01
H    7.9858383322092985E+00    2.8881050772006001E+00    1.2001574997018318E+01
O    1.7050006321463027E+00    4.7147096079928676E+00    1.6564511439296645E+01
H    2.1759104043413027E+00    4.2971494912334833E+00    1.5781897530440363E+01
H    1.3482206609515255E+00    5.6035429239661658E+00    1.6276139772658080E+01
O    8.0380125618557248E+00    8.3939856178532224E-01    2.0754394072693447E+01
H    8.1619626805570000E+00    6.0872819690296065E-01    1.9850749016484404E+01
H    7.1026747935067194E+00    1.1901940868578451E+00    2.0894713889992609E+01
O    6.8670010867373197E+00    4.2855091007781372E+00    2.0447850134727226E+01
H    7.8589710423642725E+00    4.0375988458384473E+00    2.0492338108989241E+01
H    6.5805258122690660E+00    4.4420714789517648E+00    1.9492415641886193E+01
O    2.7413964313383157E+00    7.4984807215550431E+00    1.3245239859463762E+01
H    3.2151948421547396E+00    6.8355213609838508E+00    1.3829121435218006E+01
H    2.9689660358366332E+00    7.2868915069380549E+00    1.2340323498006519E+01
O    7.7604972949757602E+00    2.1585493495529833E+00    1.6987846981234750E+01
H    7.3145421324908897E+00    2.2453175711019537E+00    1.6094825761809442E+01
H    8.3380406531956321E+00    2.9444046979497092E+00    1.7158944679331444E+01
O    7.6535269843560860E-01    1.1608550669554853E+00    2.1516324977951552E+01
H    1.0062983880154453E+01    1.3697651729839275E+00    2.1273738694998983E+01
H    1.4710433559388159E+00    1.9031635857218834E+00    2.1329434021610393E+01
O    6.0257640082439581E+00    4.5674277971249762E+00    1.7879079804797172E+01
H    5.3761837349958146E+00    5.2778927360052013E+00    1.7781757417198509E+01
H    6.7374351859369366E+00    4.8965307363978443E+00    1.7241452693648000E+01
O    7.5512859299848234E+00    2.0085124245902382E+00    8.4541019475280681E+00
H    6.9926975812967305E+00    2.7995490781750636E+00    8.5963183143694479E+00
H    7.7855207488013578E+00    2.1083365882315488E+00    7.5113510804104866E+00
O    7.2659223985055332E+00    5.9223226845029631E+00    1.5891445533284726E+01
H    7.3911777695358918E+00    6.9530491940481003E+00    1.5930151550880032E+01
H    8.0548577563681221E+00    5.5777846786942273E+00    1.5389674215761184E+01
O    8.8385632299435013E+00    2.7528566396024412E+00    1.0656004317931092E+01
H    8.4422240334391265E+00    2.4551509537033525E+00    9.7982955986368747E+00
H    9.7723028339870979E+00    2.3470120640948537E+00    1.0744222547043105E+01
O    4.4248549042981331E+00    8.1588288496692467E+00    1.6929477017660865E+01
H    4.2178334767692007E+00    8.9425611925001025E+00    1.6332773551820644E+01
H    5.2787771415228022E+00    8.2938987201339121E+00    1.7316944832850737E+01
O    5.7943516962277517E+00    4.1326342446423023E+00    9.2755094358363674E+00
H    6.0777790628896708E+00    4.9074522871381161E+00    8.7680610114864148E+00
H    4.8215372113375334E+00    4.0614703472059519E+00    8.9357767326867492E+00
O    7.8001686827201091E+00    2.4578416972148713E+00    5.8967416528179344E+00
H    7.3668645504916617E+00    1.6296663390427952E+00    5.5317199078156953E+00
H    8.6701724983991149E+00    2.5850951203111725E+00    5.5616869323500424E+00
O    4.6117815589515194E+00    1.2010971811497744E+00    1.2544154872059638E+01
H    4.4797232396672433E+00    2.0634605453316204E+00    1.2068547193267827E+01
H    4.6796451786476174E+00    4.5242358850757342E-01    1.1881148676896101E+01
O    3.0784238140147706E+00    7.5388790378173960E+00    1.0627694766920690E+01
H    3.8356257105115441E+00    7.6183633530791264E+00    9.9377727491437113E+00
H    2.6460921369829755E+00    8.4441005225028203E+00    1.0592553004682390E+01
O    4.9085582998660273E+00    9.6488067952784835E+00    2.0760653678667289E+01
H    4.9182843102906331E+00    1.0128632136598352E+01    2.1607967110744351E+01
H    3.9480041005931801E+00    9.3181005643435828E+00    2.0858171326563287E+01
O    1.0023754770274321E+01    7.3089861057304217E+00    2.0510844732434613E+01
H    9.6447362943183776E+00    7.0251951932554970E+00    1.9639063993762054E+01
H    9.2549825089476840E+00    7.6604555214003307E+00    2.1063893139375804E+01
O    2.8761980940193106E+00    3.6319245391101513E+00    1.2355533804513305E+01
H    3.7276921888340393E+00    4.1690040672178172E+00    1.2299554817516759E+01
H    2.8886940064006263E+00    3.3793710099507304E+00    1.3307020652543065E+01
O    8.9310355076423207E+00    5.4950499019419725E+00    1.0955385772184988E+01
H    8.9290349873650978E+00    4.5154442733756266E+00    1.0874783658600801E+01
H    9.8332441805446607E+00    5.7894323343695406E+00    1.0630114887766728E+01
O    3.9772869670072977E+00    3.7597895553013738E+00    1.5544664305242280E+01
H    4.2119172830897602E+00    4.7698502865865793E+00    1.5632784899728374E+01
H    4.0494088004357502E+00    3.3913465103798566E+00    1.6508428691889389E+01
O    3.2231347801935111E+00    5.8603510852938312E+00    2.1085191882883382E+01
H    2.7884394016594145E+00    6.7105687020332114E+00    2.1314923439501065E+01
H    3.0861024554832177E+00    5.7389077238420079E+00    2.0124633019638715E+01
O    9.6767845130376635E+00    3.9690834037289848E+00    1.7937301941280822E+01
H    1.0434176770179409E+01    4.0495847837982248E+00    1.7251589657044146E+01
H    1.0211927549884212E+01    3.7624334038001122E+00    1.8746927907153548E+01
O    7.5171757095415783E+00    8.9792519607445520E+00    1.1319711467861866E+01
H    7.8414774640403371E+00    9.3451021144785678E+00    1.2168582467731511E+01
H    7.1986431572877541E+00    7.9963666272509029E+00    1.1483549970993563E+01
O    3.3404827498015646E+00    2.1431157092441073E+00    1.7840054433388566E+01
H    2.7511171220499144E+00    1.8378017767846364E+00    1.7125352895096086E+01
H    4.0419124995994586E+00    1.4902349707593716E+00    1.7892213058618854E+01
O    4.7466707215659698E-01    5.3789307365432011E+00    7.2120355191394196E+00
H    5.6754589640603714E-01    5.8054706508344118E+00    8.0587015866667748E+00
H   -3.2125181424904475E-01    5.9531638119565207E+00    6.7207743023488078E+00
O    8.5804890360825752E+00   -7.7383420038737816E-01    1.3849615959303176E+01
H    9.0479528886725031E+00    1.2856304099936303E-01    1.3999792336844148E+01
H    9.2889799633253762E+00    8.7505608662641610E+00    1.3851008460798777E+01
O   -6.9914034625214416E-01    8.8662613512180091E+00    9.5824829081819232E+00
H    9.3251220534087285E+00    9.1083550494987939E+00    8.5434995649216052E+00
H    8.7226386879346194E+00    9.0007134327829341E+00    1.0239569994840860E+01
O    2.5340410854421946E-01    7.4148436422191528E+00    1.3957637133989232E+01
H    1.2800592486292561E+00    7.4455897598908605E+00    1.3698737199429495E+01
H    1.0145533820980862E+01    6.4987651875269172E+00    1.3789194501467888E+01
O    5.2907099209425983E+00    7.9277561228019406E+00    8.9806320876194903E+00
H    5.2345297148434966E+00    7.7987258866765528E+00    8.0024017149921569E+00
H    5.4138903506054268E+00    8.9387784394064020E+00    9.0423785440411919E+00
O    3.1644709609464936E+00    4.1278109940612469E+00    8.4412349861433640E+00
H    2.9911133335493347E+00    3.7640538846456484E+00    7.5653176457411773E+00
H    2.3159856355454895E+00    4.3620888596822720E+00    8.9760782929912022E+00
O    5.8739706124445590E+00    6.5360451381441331E+00    2.1177154720610535E+01
H    4.9110953772436048E+00    6.2899980654318268E+00    2.1213265539946249E+01
H    6.3149025815429498E+00    5.6697541285371456E+00    2.1072454353942383E+01
O    7.3238550535544675E+00    8.6025063073612866E+00    1.6122467968755043E+01
H    7.9083520576687647E+00    9.0840386580217274E+00    1.6781148274398472E+01
H    7.3241266353364667E+00    9.1778787713452079E+00    1.5306951335541024E+01
O    5.3511105787989175E+00    5.2556443808196684E-01    1.8294816637600437E+01
H    5.1121272065253356E+00    3.4913562023014466E-01    1.9236793220894118E+01
H    6.2114046737395538E+00    9.9233085062070525E-01    1.8259119740176747E+01
O    1.6412665126464363E+00   -5.0490396260935755E-01    1.0380813294982982E+01
H    6.7554741396430862E-01   -6.2755816414968635E-01    1.0007259681824269E+01
H    2.0440420025273358E+00    1.7779924372849862E-01    9.8451527812238897E+00
O    3.1207590866681345E+00    2.6229806758368888E+00    2.0411373117909307E+01
H    3.1699993661474291E+00    3.6203304509461982E+00    2.0277682931334123E+01
H    2.9830420896453571E+00    2.3366393410004029E+00    1.9456141500664547E+01
O    7.5296435617900972E+00    6.2391254032276482E+00    8.6326547691366535E+00
H    7.0316591210214625E+00    7.0457342244298315E+00    8.7383931194689453E+00
H    8.1155216156245995E+00    6.1212889063710074E+00    9.4203274155577361E+00
O    7.2124191005598248E-01    6.6758827410501604E+00    9.5830978867591199E+00
H    1.8912268607903499E-01    7.5698432091916885E+00    9.5433567688007557E+00
H    1.6678369479991015E+00    6.8881278948310793E+00    9.8087738349625990E+00
O    1.0415129413649540E+00    1.8644083300415615E+00    1.1993645854714607E+01
H    1.3469741363010470E+00    1.0073235137219139E+00    1.1602925092132260E+01
H    1.7537688114719663E+00    2.5112750931354380E+00    1.2029152763945996E+01
O    6.1765404835860735E+00    2.2584313079494205E+00    1.4804555275565356E+01
H    5.6505003290329094E+00    1.6268428843480514E+00    1.4264821171318328E+01
H    5.3668328540128281E+00    2.7683799678878356E+00    1.5160929382904698E+01
O    9.2176065001802971E+00    4.7113895339679477E+00    1.4288733124556563E+01
H    8.5279640844806313E+00    4.3767665450129005E+00    1.3575148756018184E+01
H    9.4587865785605008E+00    3.8620000762559350E+00    1.4698356125471953E+01
O    6.3497093598796148E+00    7.6212403949571605E+00    1.8797501441807871E+01
H    6.4929103245543551E+00    8.5483439952338571E+00    1.9029404536854560E+01
H    6.0544761734023043E+00    7.1814013096972742E+00    1.9651272857018867E+01
O    8.0077635457783121E+00    8.6598230071171933E+00    2.1887944917493613E+01
H    7.2407686737121804E+00    8.1861795685126157E+00    2.1577674973567358E+01
H    8.0529255090135301E+00    9.5919611530599500E+00    2.1495721738893561E+01
O    3.2073701715033884E+00    3.1001062620772886E+00    5.7751071114914287E+00
H    2.4477813189421336E+00    3.3613813597181523E+00    5.2569695101708209E+00
H    4.0088758446477737E+00    3.7106776623143514E+00    5.7052437140127070E+00
O    9.7108742116856419E+00    1.8803340819391186E+00    1.4248550718930634E+01
H   -9.8054476525021222E-02    1.9288494210104941E+00    1.3348690182078515E+01
H    1.0922558295711515E-01    1.6513968019942080E+00    1.5008084401112686E+01
O    3.2718903289172436E+00    1.2135474900322087E+00    9.2678397188479558E+00
H    4.1694608822803749E+00    7.9782471885496831E-01    9.3650869554875200E+00
H    3.4262991808792780E+00    2.1736943837322693E+00    9.0140195450816929E+00
O    5.4499547424188970E+00    4.1319832466076241E+00    6.3411202794131771E+00
H    6.1849224870175963E+00    3.6932334615173286E+00    5.8287569631809104E+00
H    5.5012314850529282E+00    5.1521788505803210E+00    6.1185979995720050E+00
O    8.8470423825170279E+00    6.8300010901725798E+00    1.8148141283499118E+01
H    8.8028391890381563E+00    5.8708904835800677E+00    1.7976974276596575E+01
H    7.8743967775621702E+00    7.1134802974638998E+00    1.8325568758377209E+01
O    8.5948847076950834E+00   -2.4149103139689931E-02    1.8270695158972881E+01
H    9.5899334327275287E+00   -1.6672182685162060E-01    1.8218267775003653E+01
H    8.3997482848955993E+00    8.6317089738323582E-01    1.7791102072935484E+01
O    5.8113328302321534E+00    1.6793739225833443E-01    9.9142638172849669E+00
H    6.3469241757608632E+00    9.7814235475651068E-01    9.6498305801796942E+00
H    6.3792755323818335E+00   -4.1330067416357646E-01    1.0494596685240964E+01
O    2.5490600898993638E+00    6.6082119141302060E+00    6.0340367198345453E+00
H    2.1876488098052174E+00    6.5543929471857822E+00    5.0901223412388417E+00
H    1.7872635310161600E+00    6.1538796480077744E+00    6.5656163610500258E+00
O    3.3472189079822328E+00    5.7501442991329546E+00    1.8430010143884690E+01
H    3.4668445916262502E+00    6.6976632335184023E+00    1.8175797679092266E+01
H    2.6358066462690832E+00    5.3323846350257513E+00    1.7747510808049178E+01
O    6.9423130361465262E+00    6.7462632215593583E+00    1.2403120899906998E+01
H    7.8968906858956691E+00    6.4397684583191177E+00    1.2367569111406180E+01
H    6.2846797561859438E+00    6.0719617590697439E+00    1.2154267309756992E+01
O    6.9089942868724465E+00    1.0163275561763045E+01    5.0432611304745807E+00
H    5.9565721466554074E+00    1.0314786982277457E+01    5.3440303763179822E+00
H    7.4946637620499335E+00    9.7940098758898966E+00    5.7657620375653149E+00
O    3.3707114768755599E+00    9.6847460572804760E+00    1.4651324587667775E+01
H    2.9594631795838993E+00    9.0418153495364901E+00    1.4045283867222375E+01
H    3.7581096003307355E+00    7.7742570716168399E-02    1.3936292326305061E+01
O    7.8048948425201092E-01    7.4433883761925630E+00    1.6400581443032500E+01
H    1.0125159685498405E+01    7.2809073314938901E+00    1.6826093976166984E+01
H    6.4939845399866691E-01    7.4163950708046560E+00    1.5435534019691580E+01
O    1.9865325266335430E+00    9.0335479317380383E+00    2.0742814593438482E+01
H    1.6379474929719247E+00    9.7994825516588460E+00    2.1181622335790586E+01
H    1.1549624277675574E+00    8.4243847323110828E+00    2.0586804027239445E+01
O    4.6611429386702294E+00    6.2389627918410069E+00    1.5055218532864030E+01
H    5.6886199047351056E+00    6.1448379529294899E+00    1.5079609952670605E+01
H    4.5811792565155871E+00    6.9074601665498374E+00    1.5740616544952609E+01
O    2.8721147063739170E+00    9.2936988676163619E+00    6.9936270460528869E+00
H    1.9844143309475348E+00    9.6432635834423728E+00    7.1113016995938203E+00
H    2.8087690511284831E+00    8.4345990355197920E+00    6.5431807464776854E+00
O    5.1928168829530854E+00    4.6917725103178309E+00    1.1822296213114925E+01
H    5.7898045435493524E+00    4.1053152335384482E+00    1.2407281741188919E+01
H    5.3387347966417851E+00    4.5306696668665163E+00    1.0844492184349983E+01
O    8.6323797520557619E+00    9.3583087046262161E+00    6.8822754465061111E+00
H    8.6856785220909032E+00    8.3795523938156773E+00    6.7870921138522613E+00
H   -9.0143218158929750E-01    9.9396938865499145E+00    6.4805111284625090E+00
O    2.8069358786464976E-01    3.1332169978431921E+00    5.6708268264032018E+00
H    3.8256427254790804E-01    3.9671786479168056E+00    6.1530797468432041E+00
H    1.8272124487749666E-01    3.4039595023041049E+00    4.6312326515704063E+00
O    1.2664640876603890E+00    9.7260660278045581E+00    1.7981063690108581E+01
H    1.9698942255254157E+00    9.6413986330624439E+00    1.8671914739900817E+01
H    1.1541043188603395E+00    8.8894855165519022E+00    1.7472505969796618E+01
O    9.7537990217581694E+00    4.1265044032027749E+00    2.0730723068056502E+01
H    9.8989834093377738E+00    5.0956449661808101E+00    2.0702846967020040E+01
H    9.9341886045684991E+00    3.9216805337026068E+00    2.1679081574072875E+01
O    5.8165428454825818E+00    2.1255587551524613E+00    2.1378694669928805E+01
H    6.3343559825676303E+00    2.8984815759752629E+00    2.1104365003012234E+01
H    4.8890032479473007E+00    2.3769117241371727E+00    2.1102674131082544E+01
     &END COORD
     &VELOCITY
           2.6625130122087106E-05    1.8939050953101113E-04   -1.4172185549529974E-04
           9.8181205176634404E-05    1.8831109799034285E-05   -8.3244200668573885E-05
          -8.6413303414827227E-05   -2.7084517957243912E-05   -5.6677354772611916E-05
           8.7380942336769021E-05   -8.6111003264627151E-05   -1.3482409911117063E-04
          -1.1320269544464052E-04   -3.1627329345646824E-05    2.7078552522829800E-05
          -1.8092226607217040E-04   -1.2685029429688724E-05    1.8037743453770685E-04
          -1.4587716619738177E-04   -1.3146479510897394E-04    1.1631405389381087E-04
          -7.1876704283309787E-05   -9.3317789754259142E-05   -4.7484753133811129E-05
          -2.1313064181681415E-04   -4.8511294957534925E-06    1.0024656243513751E-04
          -4.1402725857145176E-05    2.7091750263757969E-05   -6.4214276079558471E-05
          -2.0004582408087876E-05   -7.5087969897563625E-05   -1.9748034110393816E-04
          -1.1099904448379162E-05    2.0927720703145446E-06   -1.5735324887754921E-05
           5.8012684041990775E-05    5.5697627281882144E-05    6.1052135793388467E-05
          -1.0367623188588902E-04    2.4563443423653121E-05    3.7392794456125971E-05
           9.2915305164195035E-05   -9.7630943268695885E-05    1.8734057513146549E-04
          -8.9011651305734014E-06    3.7633257372034854E-06   -1.1108903380428075E-04
          -2.6603735904813259E-05    3.2763683343342718E-05    5.6363188926005356E-05
           2.5199225569627897E-04   -6.2783025255811817E-05   -2.7996723504603455E-04
          -2.8709145197282151E-06    4.6404680671709594E-05    1.3726322911947821E-05
           6.0827387952155690E-05   -9.8000873490105262E-05    2.8792058716068061E-05
           6.2377446345211174E-05    6.5478966157763215E-06   -7.2835936595699370E-05
           6.6804194304891817E-05   -9.8158228235782749E-05   -2.5711730610479019E-05
          -4.9144532178905702E-05   -2.1702876141913814E-05    4.4234333502117378E-05
          -2.2644501862750473E-05    3.5036594731850147E-05   -8.1978838463285666E-05
           1.2937907827493929E-04   -1.8149100888474931E-05   -1.1850612673638731E-04
          -1.7731721637433218E-04    1.0289692912562932E-04   -1.6668780515221183E-04
           1.9853522636432410E-04   -1.0415194978762432E-04    7.3892428824292797E-05