 # Version information for this restart file 
 # current date 2026-02-04 17:47:13.622
 # current working dir /share/home/chem-wangyg/shaofl/projects/03_CuAg_SAA/small/explicit/00_initial_stru/PZC/potential
 # Program compiled at                              Wed Jan 18 08:16:45 CST 2023
 # Program compiled on                                                    node02
 # Program compiled for                                       Linux-x86-64-intel
 # Source code revision number                                       git:e635599
 &GLOBAL
   PRINT_LEVEL  LOW
   PROJECT_NAME md
   RUN_TYPE  MD
 &END GLOBAL
 &MOTION
   &MD
     ENSEMBLE  NVT
     STEPS  20000
     TIMESTEP     9.9999999999999989E-01
     STEP_START_VAL  1950
     TIME_START_VAL     1.9499999999999711E+03
     ECONS_START_VAL    -4.2587918525659225E+03
     TEMPERATURE     3.0014999999999998E+02
     &THERMOSTAT
       TYPE  NOSE
       REGION  GLOBAL
       &NOSE
         LENGTH  3
         TIMECON     2.2237606346543473E+01
         &COORD
              -1.7293161357371519E-02    1.1319421538148568E+01   -6.0613031919313523E+00
         &END COORD
         &VELOCITY
              -1.0831212294736512E-05   -1.0342716078550651E-03   -1.4293138575386364E-03
         &END VELOCITY
         &MASS
               6.5794693026716483E+05    8.0335400521021347E+02    8.0335400521021347E+02
         &END MASS
         &FORCE
              -6.6126903514190410E-08   -1.0871078881496385E-06   -1.1347124518915715E-07
         &END FORCE
       &END NOSE
     &END THERMOSTAT
     &AVERAGES  T
       &RESTART_AVERAGES
         ITIMES_START  1
         AVECPU     5.0484633346041420E+01
         AVEHUGONIOT     0.0000000000000000E+00
         AVETEMP_BARO     0.0000000000000000E+00
         AVEPOT    -4.2591868443524891E+03
         AVEKIN     3.8961791926025735E-01
         AVETEMP     3.0044312886711924E+02
         AVEKIN_QM     0.0000000000000000E+00
         AVETEMP_QM     0.0000000000000000E+00
         AVEVOL     1.8637835790265977E+04
         AVECELL_A     1.9320371010009186E+01
         AVECELL_B     1.9320371010009186E+01
         AVECELL_C     4.9930343883102388E+01
         AVEALPHA     9.0000000000000000E+01
         AVEBETA     9.0000000000000000E+01
         AVEGAMMA     9.0000000000000000E+01
         AVE_ECONS     1.6462783835403050E+00
         AVE_PRESS     0.0000000000000000E+00
         AVE_PXX     0.0000000000000000E+00
       &END RESTART_AVERAGES
     &END AVERAGES
     &PRINT
       &ENERGY  SILENT
       &END ENERGY
     &END PRINT
   &END MD
   &PRINT
     &TRAJECTORY  SILENT
       &EACH
         MD  5
       &END EACH
     &END TRAJECTORY
     &VELOCITIES  SILENT
       &EACH
         MD  5
       &END EACH
     &END VELOCITIES
     &RESTART  SILENT
       &EACH
         MD  10
       &END EACH
     &END RESTART
   &END PRINT
 &END MOTION
 &FORCE_EVAL
   METHOD  QS
   &DFT
     BASIS_SET_FILE_NAME BASIS_MOLOPT
     POTENTIAL_FILE_NAME GTH_POTENTIALS
     WFN_RESTART_FILE_NAME ./pt-RESTART.wfn
     UKS  T
     CHARGE  0
     &SCF
       MAX_SCF  60
       EPS_SCF     1.0000000000000001E-05
       CHOLESKY  INVERSE
       SCF_GUESS  RESTART
       ADDED_MOS  100
       &DIAGONALIZATION  T
         ALGORITHM  STANDARD
       &END DIAGONALIZATION
       &OUTER_SCF  T
         EPS_SCF     1.0000000000000001E-05
         MAX_SCF  50
       &END OUTER_SCF
       &SMEAR  T
         METHOD  FERMI_DIRAC
       &END SMEAR
       &MIXING  T
         METHOD  BROYDEN_MIXING
         ALPHA     2.9999999999999999E-01
         BETA     1.5000000000000000E+00
         NBUFFER  32
       &END MIXING
       &PRINT
         &RESTART_HISTORY  SILENT
           ADD_LAST  NUMERIC
           FILENAME = MD_RESTART_HISTORY.wfn
           BACKUP_COPIES  5
           &EACH
           &END EACH
         &END RESTART_HISTORY
       &END PRINT
     &END SCF
     &QS
       EPS_DEFAULT     9.9999999999999998E-13
       EPS_PGF_ORB     9.9999999999999995E-07
       EXTRAPOLATION  ASPC
       EXTRAPOLATION_ORDER  3
     &END QS
     &MGRID
       NGRIDS  5
       CUTOFF     4.5000000000000000E+02
       REL_CUTOFF     6.0000000000000000E+01
     &END MGRID
     &XC
       DENSITY_CUTOFF     1.0000000000000000E-10
       GRADIENT_CUTOFF     1.0000000000000000E-10
       TAU_CUTOFF     1.0000000000000000E-10
       &XC_GRID
         XC_SMOOTH_RHO  NN10
         XC_DERIV  NN10_SMOOTH
       &END XC_GRID
       &XC_FUNCTIONAL  NO_SHORTCUT
         &PBE  T
         &END PBE
       &END XC_FUNCTIONAL
       &VDW_POTENTIAL
         POTENTIAL_TYPE  PAIR_POTENTIAL
         &PAIR_POTENTIAL
           R_CUTOFF     1.0000000000000002E+01
           TYPE  DFTD3
           PARAMETER_FILE_NAME dftd3.dat
           REFERENCE_FUNCTIONAL PBE
         &END PAIR_POTENTIAL
       &END VDW_POTENTIAL
     &END XC
     &PRINT
       &V_HARTREE_CUBE  SILENT
         ADD_LAST  NUMERIC
         FILENAME POTENTIAL
         STRIDE  8 8 1
         APPEND  T
         &EACH
           MD  50
           GEO_OPT  0
         &END EACH
       &END V_HARTREE_CUBE
       &MULLIKEN  SILENT
         FILENAME =CHARGE.mulliken
         &EACH
           MD  5
         &END EACH
       &END MULLIKEN
     &END PRINT
   &END DFT
   &SUBSYS
     &CELL
       A     1.0223900000000002E+01    0.0000000000000000E+00    0.0000000000000000E+00
       B     0.0000000000000000E+00    1.0223900000000002E+01    0.0000000000000000E+00
       C     0.0000000000000000E+00    0.0000000000000000E+00    2.6422000000000001E+01
       PERIODIC  XYZ
       MULTIPLE_UNIT_CELL  1 1 1
     &END CELL
     &COORD
Cu    9.6957341582911418E+00   -2.2787104198762384E-01    2.5591461839403557E+01
Cu    2.1108407228772612E+00    2.4409287430257862E+00    2.5675665184841449E+01
Cu    9.7656595996463267E+00    1.0180559002934706E+01    2.6113078310326241E+00
Cu    2.2269909154552918E+00    2.4718696312975101E+00    2.7960938371208317E+00
Cu    1.9516146242254315E+00    1.0214818983823537E+01    2.5658262957247508E+01
Cu    9.8731113754945010E+00    2.5244248455907004E+00    2.5507154975751892E+01
Cu    1.9564544717961030E+00    1.0238704025222505E+01    2.7068757468248368E+00
Cu    9.7810221289706956E+00    2.5711214773786888E+00    2.7867255495907459E+00
Cu    3.2865940852646767E+00    1.0716858588837292E+00    2.4040194339284557E+01
Cu    8.7925588108708974E-01    3.8613473924060950E+00    2.3824143827165610E+01
Cu    3.3479601548457163E+00    1.1200654926448186E+00    1.0586011375346496E+00
Cu    6.9110377930747424E-01    3.8262223034099829E+00    8.7795153995529929E-01
Cu    8.2604314847823668E-01    1.3378410808259373E+00    2.3793358019794798E+01
Ag    3.5553788748000579E+00    3.7458060868717733E+00    2.3723691152739164E+01
Cu    8.5139951198798558E-01    1.2630744451334308E+00    1.0199726620583611E+00
Cu    3.2697845636876046E+00    3.6849856121700695E+00    8.9782890656169945E-01
Cu    4.7125430820057703E+00    1.0107352618916087E+01    2.5557321428456380E+01
Cu    7.3174752199147468E+00    2.4334063201480154E+00    2.5626532407782303E+01
Cu    4.6084769030937158E+00    1.0306199690689029E+01    2.8505991157869079E+00
Cu    7.1987788687247285E+00    2.6445352159520339E+00    2.7851961236051688E+00
Cu    7.1378835512009884E+00    1.0267162047563589E+01    2.5440691316805893E+01
Cu    4.7684616290042543E+00    2.5003828111254651E+00    2.5722676240900643E+01
Cu    7.2239056895482499E+00    1.0223334965974878E+01    2.8339361773641958E+00
Cu    4.5994697328871208E+00    2.5835877838628547E+00    2.7248465151013246E+00
Cu    8.3395683501478395E+00    1.2678333102921009E+00    2.3771322466023360E+01
Cu    6.1018134234581929E+00    3.6877034768736530E+00    2.3979697397621049E+01
Cu    8.5361945167559039E+00    1.2180083539427020E+00    1.0698540435143675E+00
Cu    5.9432708108270900E+00    3.8348137109846063E+00    1.1353031808751441E+00
Cu    5.7934880596971130E+00    1.3313781513630694E+00    2.3842350464895208E+01
Cu    8.5772624792466701E+00    3.8768580669308559E+00    2.3817811492459512E+01
Cu    6.0362205816022607E+00    1.2624743708302388E+00    1.0750101543532873E+00
Cu    8.5006212495933404E+00    3.7100426239121957E+00    1.0146612921995912E+00
Cu    9.7425899546342762E+00    5.1048269255145380E+00    2.5642000761834804E+01
Cu    1.9726252372418867E+00    7.5991357026007691E+00    2.5667684060307586E+01
Cu    9.6596275048427387E+00    5.0675484614255843E+00    2.7757083891733134E+00
Cu    2.0721964356567124E+00    7.6245199015817748E+00    2.7941380035383969E+00
Cu    2.0334926730657750E+00    5.1799891528933699E+00    2.5612156308547867E+01
Cu    9.5938306100565338E+00    7.5319510307503563E+00    2.5620238664698952E+01
Cu    2.0143525723577134E+00    5.0409282453504076E+00    2.6150708068275872E+00
Cu    9.6835323539642371E+00    7.6084418481098197E+00    2.9413516782114417E+00
Cu    3.3381149719845240E+00    6.4611469866871989E+00    2.3965968333450995E+01
Cu    8.4219196860337742E-01    8.9640768613861006E+00    2.3803272607253440E+01
Cu    3.3872387841554716E+00    6.3579112636163817E+00    9.6365934990442226E-01
Cu    7.6588759147799379E-01    8.9646345805110226E+00    9.6989438779730841E-01
Cu    7.2210941186044586E-01    6.3065476931917228E+00    2.3823222984728162E+01
Cu    3.2461423724757545E+00    8.8785554700672105E+00    2.3917887742394583E+01
Cu    7.4447861319509723E-01    6.3672821993390691E+00    1.0090220923267579E+00
Cu    3.3145280297989834E+00    9.0503988727488647E+00    9.6186637264386088E-01
Cu    4.6993006957437098E+00    5.0802731273957100E+00    2.5703400083643814E+01
Cu    7.1366408045079508E+00    7.5815536281320606E+00    2.5508999335607939E+01
Ag    4.6821656725177130E+00    5.1974451229365286E+00    3.1152017150836340E+00
Cu    6.9450730676987211E+00    7.5895175215409676E+00    3.0587993916152207E+00
Cu    7.3829737253237910E+00    5.0539797691799242E+00    2.5768505487843758E+01
Cu    4.6115811302338772E+00    7.5789963833350047E+00    2.5673213776093057E+01
Cu    7.2331534038164333E+00    5.2167578234603917E+00    2.9658502241588511E+00
Cu    4.5346218705749770E+00    7.8526516756028775E+00    2.5516939113857542E+00
Cu    8.4630552158778691E+00    6.3247261109818345E+00    2.3729040279944982E+01
Cu    5.7244414618354433E+00    8.8079760479798264E+00    2.3670889470760073E+01
Cu    8.4208466453062805E+00    6.4319309186294173E+00    1.0587146313322211E+00
Cu    5.8717563849853054E+00    8.9263798943938717E+00    9.4617820328581992E-01
Cu    5.9290313378360686E+00    6.1281998646641460E+00    2.3752949335003990E+01
Cu    8.4102010291756031E+00    8.8537114216989874E+00    2.3850981235841800E+01
Cu    5.9383728788417631E+00    6.3684237019560426E+00    9.4839758704574184E-01
Cu    8.3766940377906582E+00    8.8269406378223216E+00    1.1516197125267331E+00
O    5.6596528995979609E+00    7.2294870831880589E+00    5.6983545505363917E+00
H    5.6873952670832129E+00    7.1440536857417429E+00    4.7362340472588533E+00
H    5.0403677142439172E+00    6.5428976128792602E+00    6.0659846089080514E+00
O    8.4464185923374320E+00    6.3958003452854602E+00    5.7304928276124230E+00
H    7.4818190588303866E+00    6.4469982315142236E+00    6.0229517331234144E+00
H    8.3845163023716616E+00    6.4883497829091494E+00    4.7314734834532040E+00
O    2.3764092130687944E+00    1.1176660398904683E+00    1.6371602838311556E+01
H    2.1657718951308178E+00    2.6763530078032194E-01    1.6919512399053712E+01
H    2.8681853613026487E+00    7.3341945781729012E-01    1.5584761546354663E+01
O    4.5727170369197347E+00    1.0585939993565903E+01    4.9808835202131201E+00
H    4.0069398863575296E+00    1.0026724987676962E+01    5.5350851633352915E+00
H    4.3663120033961222E+00    1.3176163781961372E+00    5.2474753513185206E+00
O    7.9214432716999827E-01    1.0670389904271012E+01    5.9367994443312178E+00
H    2.7512997207517592E-01    1.1113924921796292E+00    6.4100781787716015E+00
H    7.3376153922425602E-01    1.0933924174281065E+01    4.9689218047230748E+00
O    7.2822724438084334E+00    3.1810014828622015E+00    1.2825330220277079E+01
H    6.9232043081140668E+00    2.4959202100264664E+00    1.3468198307028231E+01
H    7.9963598572704102E+00    2.6097728353990721E+00    1.2351933931222666E+01
O    1.9326497132096050E+00    5.0216529908848653E+00    1.6828728936183392E+01
H    2.3206009365841576E+00    4.6704674276526816E+00    1.5956333082081448E+01
H    1.3490621135230756E+00    5.7528454406564355E+00    1.6471075502489196E+01
O    8.3686527493977678E+00    1.0417891014866139E+00    2.0251951798257050E+01
H    8.4755743037766447E+00    7.4561336466623496E-01    1.9273250204766288E+01
H    8.0957822648449742E+00    2.0235780124463045E+00    2.0373355793028889E+01
O    7.5329855725034411E+00    3.5730131763903352E+00    2.0570142678474181E+01
H    8.3929287122802858E+00    4.0014751964808664E+00    2.0865917146874878E+01
H    7.4103093992814619E+00    4.0553367772164206E+00    1.9685184095764821E+01
O    2.7268705353860763E+00    8.1070191665555225E+00    1.2969645070724484E+01
H    3.3887044427164850E+00    7.5472706024785001E+00    1.3535713707037742E+01
H    2.7322650341642873E+00    7.9326327125875418E+00    1.2049937398257001E+01
O    8.4831194508975987E+00    2.1635126821608819E+00    1.6739064777911725E+01
H    9.2106608785540285E+00    2.3132971746291418E+00    1.6097481208588789E+01
H    8.7531388637997516E+00    2.6184743952461980E+00    1.7578116575345430E+01
O    7.3596329742977307E-01    9.8219765552057026E-01    2.1453608511774199E+01
H    1.0118627233260966E+01    1.2014810541930143E+00    2.0968044978996971E+01
H    1.3969265203662038E+00    1.6939072816695986E+00    2.1054606700358971E+01
O    6.5742514688663025E+00    4.6296631449097063E+00    1.8611166175424547E+01
H    5.7730252733669580E+00    5.1540915035217889E+00    1.8688232766941798E+01
H    6.9421803028552462E+00    4.9274938915257245E+00    1.7767170981643737E+01
O    7.0950641455819996E+00    2.4961589496591206E+00    8.7899776673812333E+00
H    6.7279831629004763E+00    3.4199905364975876E+00    8.6328679914218664E+00
H    7.5641073892107675E+00    2.3502615989980646E+00    7.9484506019641730E+00
O    7.4739518235668623E+00    5.8117368965855807E+00    1.6249760986003526E+01
H    7.6821274564742046E+00    6.7894545984474606E+00    1.6209963048359384E+01
H    8.2242714286432737E+00    5.3494509920706310E+00    1.5796150734643247E+01
O    9.0498877048374275E+00    2.6405305610426359E+00    1.0824210660509159E+01
H    8.4308097002990383E+00    2.3739663970102844E+00    1.0125137093432754E+01
H    9.8564255787047479E+00    2.0415839892141605E+00    1.0969474651366657E+01
O    5.0826608889045728E+00    8.3957352430324956E+00    1.6843452402494712E+01
H    4.9198829715818464E+00    9.2796842759806619E+00    1.6592749873673458E+01
H    6.1014184165343330E+00    8.3920002827366726E+00    1.6779564968007154E+01
O    5.3971326834522930E+00    4.5565789311892653E+00    8.9184832160411514E+00
H    5.6977023713363852E+00    5.5151014016419353E+00    8.6414099485154807E+00
H    4.5973318378543935E+00    4.4113193631964682E+00    8.3945102017788518E+00
O    8.1591845804975431E+00    2.3698981842307121E+00    6.1988168930072529E+00
H    7.7852592961211498E+00    1.6573015448754254E+00    5.6097891984438597E+00
H    8.9459912199994491E+00    2.7732365787351960E+00    5.7785391310426446E+00
O    3.8772254755690150E+00    2.0957627200629143E+00    1.2295435742152211E+01
H    4.1976893623417162E+00    3.0051746778698507E+00    1.2234781795853092E+01
H    4.4918287016042511E+00    1.6567169015445125E+00    1.1685379255638651E+01
O    2.5696108810723346E+00    8.1925686613344233E+00    1.0176843314784879E+01
H    3.4033273070146119E+00    8.2422235394248435E+00    9.6572254371388961E+00
H    2.3221322103477471E+00    9.1284291349086217E+00    1.0323996292866905E+01
O    5.8872860812337136E+00    9.4469175282875177E+00    2.0379824460278019E+01
H    6.3035974931684819E+00    1.0175594597230418E+01    2.0752685967537346E+01
H    4.9120252298670737E+00    9.4659669813510163E+00    2.0654480363300856E+01
O    1.1497748950630157E+01    7.1053978990281417E+00    2.0779101919309081E+01
H    1.0805080806885426E+01    6.9088875271913706E+00    2.0050298012283370E+01
H    1.1011605191373933E+01    7.3731714918753806E+00    2.1548900733243091E+01
O    3.4340161257732169E+00    4.0854675308868869E+00    1.4617109666745545E+01
H    3.7201355860307235E+00    5.0166575900067469E+00    1.4410576426100397E+01
H    4.3189079861112551E+00    3.8079343445942220E+00    1.5006862834430478E+01
O    8.7584169686752116E+00    5.4620165192656422E+00    1.0514525085773913E+01
H    8.7933634203630593E+00    4.5571349965692001E+00    1.0237969228820569E+01
H    9.5206011050120765E+00    5.9602376926631173E+00    1.0136439940422420E+01
O    5.6500125218060759E+00    3.5943504598456588E+00    1.5824657377913004E+01
H    6.1005811725731887E+00    4.4427771859823784E+00    1.5948127396552644E+01
H    5.2390052275043422E+00    3.3167884870365478E+00    1.6641453376704820E+01
O    3.3707144898138743E+00    5.3189625310580393E+00    2.0862793901131379E+01
H    2.5452213536756858E+00    5.7908084429050124E+00    2.1166816733126698E+01
H    3.3927282314394427E+00    5.5405070225203898E+00    1.9902866022631610E+01
O    9.9676926822033955E+00    3.9098077425439177E+00    1.8314891488084587E+01
H    1.0698894082363546E+01    3.8964593100924390E+00    1.7660394301396430E+01
H    1.0215861519864873E+01    3.6300817396336700E+00    1.9234177230146781E+01
O    7.1319436798794440E+00    9.3849689541084906E+00    1.1420415340107382E+01
H    7.6476187189481921E+00    9.5626477201333309E+00    1.2251460249499241E+01
H    6.8479544198734104E+00    8.4062953864120029E+00    1.1434535093141029E+01
O    3.9281730358621956E+00    2.5058684856517845E+00    1.7897758164429245E+01
H    3.2901387631761860E+00    2.1408278384377364E+00    1.7249682521839627E+01
H    4.7068902199827107E+00    1.8703595284202257E+00    1.8032353371700029E+01
O    7.2956527195429310E-01    5.8192896586064267E+00    6.9909534827834419E+00
H    5.2310262519949668E-01    6.3154937397277457E+00    7.8426357711294923E+00
H   -9.0446772096872172E-02    6.1249574405367238E+00    6.5032257450868522E+00
O    8.9144141206840430E+00   -7.2670337549483044E-01    1.4069842209617601E+01
H    9.6007588096162397E+00   -6.8089087117831321E-02    1.4200959478620346E+01
H    9.4373663713535194E+00    8.6603853631179515E+00    1.3927611930568570E+01
O   -1.1990578334006521E+00    9.5095674749175831E+00    9.5467915787903905E+00
H    8.7770368389906661E+00    9.5099583270305832E+00    8.6100568123835917E+00
H    8.1598941408150871E+00    9.5258548895589055E+00    1.0154169302848064E+01
O   -4.0625759197732529E-02    7.0743621548392568E+00    1.3712292273581266E+01
H    7.6299961231598223E-01    7.0619440007916667E+00    1.3118209381563604E+01
H    9.6791491708033224E+00    6.1779869210676797E+00    1.3598784671835597E+01
O    4.5128606159218583E+00    8.5594101726987031E+00    8.5740822544125752E+00
H    3.9108575475113558E+00    8.9360512204741376E+00    7.8748590142937038E+00
H    4.9029154980987011E+00    9.2562976895619400E+00    9.0605702231102097E+00
O    2.9158917680961407E+00    3.8372641997456398E+00    7.9701473043875364E+00
H    3.1117811719907067E+00    3.7513541678294411E+00    6.9952555191835284E+00
H    2.0914975225908607E+00    4.3865486525771837E+00    8.0349024405007619E+00
O    5.8167826052168445E+00    5.7569330656872975E+00    2.1505561621590630E+01
H    4.8546476823798086E+00    5.6427231201701034E+00    2.1219918147871585E+01
H    6.2275958027537888E+00    4.9024926822390311E+00    2.1362129865484057E+01
O    7.8203096710112652E+00    8.4853189580876673E+00    1.6322951383286174E+01
H    8.2813000817402749E+00    9.0299855461911473E+00    1.6953649932627439E+01
H    8.0952744053472099E+00    8.8898512565549908E+00    1.5440360255765521E+01
O    5.8062580273765620E+00    6.4557524343424100E-01    1.8101319045667342E+01
H    5.9873066917232380E+00    5.8779566900686364E-02    1.8894979215622030E+01
H    6.5676571967746122E+00    1.1124711441556134E+00    1.7776955407453389E+01
O    9.7018381098237538E-01    8.5956847344126519E-01    1.0601298814434127E+01
H    2.5922415999685727E-01    2.7985621326619547E-01    1.0145717563996968E+01
H    1.5866578272635725E+00    9.6951758567875401E-01    9.8074770117860997E+00
O    3.2622028373248453E+00    2.3772478275217712E+00    2.0584759667730673E+01
H    3.2525742475928614E+00    3.4421822991713933E+00    2.0795674710912973E+01
H    3.1896345424374779E+00    2.3801414455823346E+00    1.9640991115527392E+01
O    6.7397887732994848E+00    6.7029285265751453E+00    8.7730574298696560E+00
H    6.4420664853715364E+00    7.6182262115600308E+00    8.8766345382714551E+00
H    7.2050721135350422E+00    6.4894109237064992E+00    9.6274913023751871E+00
O    3.4632895882870057E-01    7.2219388819592627E+00    9.1943427888810216E+00
H   -2.2646490584082360E-01    7.9998866914063615E+00    9.2650267970990985E+00
H    1.2173681363217959E+00    7.5058941862321120E+00    9.5145412514775813E+00
O    1.2013535853844903E+00    3.2067646147576778E+00    1.2866741692349880E+01
H    1.7349800441734196E+00    2.5191567524237817E+00    1.2374913857568655E+01
H    1.9478258547963263E+00    3.6577862638588865E+00    1.3348367818551591E+01
O    6.5199780776126737E+00    1.3429881502475909E+00    1.4576750725997996E+01
H    5.6776572630124678E+00    7.7895173824532271E-01    1.4373181368632332E+01
H    6.3253440165195309E+00    2.0595624821528569E+00    1.5237519602510613E+01
O    8.9931391689319504E+00    4.4962798990767610E+00    1.4147234637112922E+01
H    8.1061585248734982E+00    4.1905343071042394E+00    1.3643175742954705E+01
H    9.7337291351733271E+00    4.1730847069410819E+00    1.3539952773066469E+01
O    7.3127179171348180E+00    7.2784446326258454E+00    2.0026440236405460E+01
H    6.6063378265188755E+00    7.9870946755508099E+00    1.9859055605567189E+01
H    6.7916734294046153E+00    6.6805918703823615E+00    2.0599275489222311E+01
O    8.7544555343587795E+00    8.9928794095449849E+00    2.1713826655834023E+01
H    8.2587970305963214E+00    8.2296964845751184E+00    2.1239833740779893E+01
H    8.6192663118230328E+00    9.7994188535475217E+00    2.1139164385926406E+01
O    3.8292822334474366E+00    2.9888011136491186E+00    5.6281764334609816E+00
H    3.3576832679483610E+00    3.0533655048881134E+00    4.7332983559075128E+00
H    4.6373892732129036E+00    3.6219288516628509E+00    5.5367171100529129E+00
O    1.0250528003051215E+01    1.5965562536773890E+00    1.4779650065264885E+01
H    3.8374575211444961E-01    2.1767008574007769E+00    1.4066171031088045E+01
H    7.6764091938254364E-01    1.3053137037997506E+00    1.5394360632387263E+01
O    2.7552675401277940E+00    1.0799241463535483E+00    8.7031201625861865E+00
H    3.5630319088902684E+00    9.3245901233814898E-01    9.2026970098760383E+00
H    2.7478168382335268E+00    2.0600452310558408E+00    8.4908440939912282E+00
O    6.0306632606308730E+00    4.3486897381944551E+00    5.7744710085830073E+00
H    6.7660534872863929E+00    3.6514761927267414E+00    5.8433526159940321E+00
H    6.0351837327322402E+00    4.5822897079158453E+00    4.8243418401258111E+00
O    9.6641812535793541E+00    6.5627969029784037E+00    1.8862724859578730E+01
H    9.6182786027687346E+00    5.6255917098425074E+00    1.8846083169691802E+01
H    8.7279164338738582E+00    6.7937542289180142E+00    1.9146373514318974E+01
O    9.1504068266214809E+00   -7.9625563523636436E-02    1.7886955734066927E+01
H    1.0116576042413403E+01   -1.6904434742158025E-01    1.8178876017135341E+01
H    9.0760276437685423E+00    7.4399434255405283E-01    1.7357988578553282E+01
O    5.2798474042575974E+00    7.6553877641741075E-01    1.0234627657389623E+01
H    6.0505684145039655E+00    1.2907206779375002E+00    9.7541534244910331E+00
H    5.7965171507617379E+00    2.2497039751625136E-01    1.0881675777600892E+01
O    2.9269472126971654E+00    6.3826269864147118E+00    5.6571755086867821E+00
H    2.6882246276696988E+00    6.1548310514196709E+00    4.7566469947854060E+00
H    2.0938533167511775E+00    6.1026880294480055E+00    6.1815136411780358E+00
O    4.0453478536425305E+00    6.0783285318526099E+00    1.8367470232820949E+01
H    4.1309442897159530E+00    7.0187073333935013E+00    1.8089731591816555E+01
H    3.4508551127833562E+00    5.6003699248685814E+00    1.7638606943252533E+01
O    6.5044726287489381E+00    6.7845852078141808E+00    1.2176023770850488E+01
H    7.3991810335719510E+00    6.4385801984129190E+00    1.2097888867796524E+01
H    5.9449592203263748E+00    6.0303900779825668E+00    1.1860965134578901E+01
O    7.1929286640494556E+00    1.0273454198214331E+01    4.9461293259459662E+00
H    6.2067209663435001E+00    1.0327673438200865E+01    5.3228904066999103E+00
H    7.7986711081875404E+00    9.7465376643754489E+00    5.5880984626024812E+00
O    3.9000756090478990E+00    1.0448256516258702E+01    1.4284202210689930E+01
H    3.4245199941790121E+00    9.6649674816048012E+00    1.3974995632439663E+01
H    3.8227262228434142E+00    9.8943642929220565E-01    1.3592192552218979E+01
O    8.1462514564848754E-01    7.1930234739306593E+00    1.6353716354315406E+01
H    1.0214461205501646E+01    7.1473414954636514E+00    1.6865755137252950E+01
H    6.3245064635893611E-01    7.6600279435732199E+00    1.5503722349369808E+01
O    3.1910171867495221E+00    9.1597952650910024E+00    2.0299346995977622E+01
H    2.6715134857611167E+00    9.8285234555273782E+00    2.0689052788242542E+01
H    2.8601872015429861E+00    8.4142940211232311E+00    2.0823857328096832E+01
O    4.5652956735755712E+00    6.7894537411087761E+00    1.4514983354016289E+01
H    5.2671161817783805E+00    6.7863795681273391E+00    1.3811292320998502E+01
H    4.8208695021566275E+00    7.3134008513724460E+00    1.5359093608218712E+01
O    3.1174108402894629E+00    8.9616987411154092E+00    6.4321058325321125E+00
H    2.2078299848133933E+00    9.4488500022065676E+00    6.5807745243150402E+00
H    3.0205918626236774E+00    8.0242002982731169E+00    6.0967400954529740E+00
O    5.0539902268918739E+00    4.4734883753707351E+00    1.1654639099588765E+01
H    5.8315389117139649E+00    3.9554403013299035E+00    1.1981776762363761E+01
H    5.1768877137848799E+00    4.3357959122084813E+00    1.0670493905100983E+01
O    8.8189281219744355E+00    8.9020310644221308E+00    6.7041188628699766E+00
H    8.7709754950774155E+00    8.0410369493682445E+00    6.2549634092319080E+00
H   -6.8148300776092785E-01    9.5564191173747659E+00    6.2198940323302763E+00
O    3.5846262576051624E-01    3.1736679887713581E+00    5.8626091622404184E+00
H    3.6554314107904751E-01    4.0593184543359726E+00    6.3004498738003401E+00
H    7.3050613384763463E-01    3.2738962826342020E+00    4.9926627577767286E+00
O    1.7588206471432541E+00    9.2435391862329475E+00    1.7791073469781701E+01
H    2.1870312713225664E+00    9.1255145056184368E+00    1.8710089617394519E+01
H    1.5682656009883260E+00    8.3112836162694279E+00    1.7398063673141820E+01
O    1.0209765843811917E+01    4.0474549521871088E+00    2.0945348798424110E+01
H    1.0687563072765446E+01    4.8983245976690881E+00    2.0939396694326458E+01
H    1.0363714084898255E+01    3.6919733998500739E+00    2.1854018171358859E+01
O    5.6703986709621752E+00    1.7189917811773086E+00    2.1707543146929474E+01
H    6.2008856705245332E+00    2.4972816833971390E+00    2.1499241204060272E+01
H    4.7580209807902349E+00    1.8534427379088270E+00    2.1296070994637478E+01
     &END COORD
     &VELOCITY
           6.5434371623876648E-05   -4.3024944151904208E-05    7.3919817145887532E-06
           2.7913636247944448E-05   -7.6940928100392849E-05   -8.8839665538560116E-05
          -3.3022468228935072E-05    2.9970706729121977E-06   -7.6172711389249688E-05
           9.8426426394754854E-05   -1.3218774973964531E-04   -3.2334540553683282E-05
           6.1469660859261241E-06    1.2162752381992250E-04   -4.2956958757284786E-05
           8.7045686917861789E-05   -6.6490819147839737E-05    2.8233456907351339E-05
           1.0176619507967063E-04   -1.1126184159038107E-04   -5.4952286570673555E-05
           5.2853200375771182E-05   -9.5412619691286106E-05   -4.1641137788684884E-05
          -3.7407410201523237E-05   -1.5062591360807896E-04    3.7638506343978432E-05
          -1.9534895433275179E-05   -1.4741635314645643E-04    3.5530299898868597E-05
          -3.8591235647796078E-06   -3.7025792157696947E-05   -1.3539184917678025E-04
          -2.2100538426088405E-04   -8.0579734091593898E-06   -5.2542472955032945E-05
           1.8444607815992314E-04    4.1757658174211821E-05    1.6976853314334519E-04
          -2.3069318921007245E-06    1.0741751998864412E-04   -5.5089758166891133E-05
          -1.2598176789541175E-04    4.7659942617709974E-05    8.2515171450805219E-05
          -2.0284524497642307E-05   -2.0103675283866054E-05    1.2517387547594829E-04
          -5.0179297394262654E-05   -9.6061955309393237E-05   -1.2393064728853377E-04
          -1.3153666495341942E-04    3.2335981822888346E-05   -2.6058363759005136E-05
           2.4330506785817814E-04   -7.8692585697393347E-05   -3.0530594239096902E-05
           7.3510019187373959E-05   -1.9821527135914897E-05   -6.9290705571241470E-05
           7.6875057072572808E-05   -8.1843837198138189E-05    7.7022836921616681E-05
           1.7015832959899222E-05   -5.2308589598448041E-05   -3.2971979765637951E-05
          -2.3151284136007931E-05    4.9527707642173261E-05   -1.3802349030059058E-04
           2.6155604168215151E-05   -8.0562904656923841E-05    9.6192486852370027E-05
          -2.7965852665448810E-05   -4.6018304246876240E-05   -1.1953618380722939E-04
          -1.4342138075474080E-04   -1.0159868600833631E-05   -4.9241983535859572E-05
          -9.4380713573341635E-06   -1.0935561118770066E-04   -7.3667978550136955E-05