 # Version information for this restart file 
 # current date 2026-02-04 11:28:59.008
 # current working dir /share/home/chem-wangyg/shaofl/projects/03_CuAg_SAA/small/explicit/00_initial_stru/PZC/potential
 # Program compiled at                              Wed Jan 18 08:16:45 CST 2023
 # Program compiled on                                                    node02
 # Program compiled for                                       Linux-x86-64-intel
 # Source code revision number                                       git:e635599
 &GLOBAL
   PRINT_LEVEL  LOW
   PROJECT_NAME md
   RUN_TYPE  MD
 &END GLOBAL
 &MOTION
   &MD
     ENSEMBLE  NVT
     STEPS  20000
     TIMESTEP     9.9999999999999989E-01
     STEP_START_VAL  1500
     TIME_START_VAL     1.5000000000000152E+03
     ECONS_START_VAL    -4.2587918525659225E+03
     TEMPERATURE     3.0014999999999998E+02
     &THERMOSTAT
       TYPE  NOSE
       REGION  GLOBAL
       &NOSE
         LENGTH  3
         TIMECON     2.2237606346543473E+01
         &COORD
               7.3446104792265779E-02    2.0368929390444504E-02    3.4692064952075163E-03
         &END COORD
         &VELOCITY
               9.9068547007055754E-06    8.7062456594235664E-04   -8.9432645240661475E-04
         &END VELOCITY
         &MASS
               6.5794693026716483E+05    8.0335400521021347E+02    8.0335400521021347E+02
         &END MASS
         &FORCE
              -2.0180312012465221E-08   -1.1028076183243882E-06   -4.2520186918194191E-07
         &END FORCE
       &END NOSE
     &END THERMOSTAT
     &AVERAGES  T
       &RESTART_AVERAGES
         ITIMES_START  1
         AVECPU     5.0500244016523155E+01
         AVEHUGONIOT     0.0000000000000000E+00
         AVETEMP_BARO     0.0000000000000000E+00
         AVEPOT    -4.2591871517031504E+03
         AVEKIN     3.8929225110624355E-01
         AVETEMP     3.0019199883862882E+02
         AVEKIN_QM     0.0000000000000000E+00
         AVETEMP_QM     0.0000000000000000E+00
         AVEVOL     1.8637835790265723E+04
         AVECELL_A     1.9320371010009655E+01
         AVECELL_B     1.9320371010009655E+01
         AVECELL_C     4.9930343883103845E+01
         AVEALPHA     9.0000000000000000E+01
         AVEBETA     9.0000000000000000E+01
         AVEGAMMA     9.0000000000000000E+01
         AVE_ECONS     1.2922838253125712E+00
         AVE_PRESS     0.0000000000000000E+00
         AVE_PXX     0.0000000000000000E+00
       &END RESTART_AVERAGES
     &END AVERAGES
     &PRINT
       &ENERGY  SILENT
       &END ENERGY
     &END PRINT
   &END MD
   &PRINT
     &TRAJECTORY  SILENT
       &EACH
         MD  5
       &END EACH
     &END TRAJECTORY
     &VELOCITIES  SILENT
       &EACH
         MD  5
       &END EACH
     &END VELOCITIES
     &RESTART  SILENT
       &EACH
         MD  10
       &END EACH
     &END RESTART
   &END PRINT
 &END MOTION
 &FORCE_EVAL
   METHOD  QS
   &DFT
     BASIS_SET_FILE_NAME BASIS_MOLOPT
     POTENTIAL_FILE_NAME GTH_POTENTIALS
     WFN_RESTART_FILE_NAME ./pt-RESTART.wfn
     UKS  T
     CHARGE  0
     &SCF
       MAX_SCF  60
       EPS_SCF     1.0000000000000001E-05
       CHOLESKY  INVERSE
       SCF_GUESS  RESTART
       ADDED_MOS  100
       &DIAGONALIZATION  T
         ALGORITHM  STANDARD
       &END DIAGONALIZATION
       &OUTER_SCF  T
         EPS_SCF     1.0000000000000001E-05
         MAX_SCF  50
       &END OUTER_SCF
       &SMEAR  T
         METHOD  FERMI_DIRAC
       &END SMEAR
       &MIXING  T
         METHOD  BROYDEN_MIXING
         ALPHA     2.9999999999999999E-01
         BETA     1.5000000000000000E+00
         NBUFFER  32
       &END MIXING
       &PRINT
         &RESTART_HISTORY  SILENT
           ADD_LAST  NUMERIC
           FILENAME = MD_RESTART_HISTORY.wfn
           BACKUP_COPIES  5
           &EACH
           &END EACH
         &END RESTART_HISTORY
       &END PRINT
     &END SCF
     &QS
       EPS_DEFAULT     9.9999999999999998E-13
       EPS_PGF_ORB     9.9999999999999995E-07
       EXTRAPOLATION  ASPC
       EXTRAPOLATION_ORDER  3
     &END QS
     &MGRID
       NGRIDS  5
       CUTOFF     4.5000000000000000E+02
       REL_CUTOFF     6.0000000000000000E+01
     &END MGRID
     &XC
       DENSITY_CUTOFF     1.0000000000000000E-10
       GRADIENT_CUTOFF     1.0000000000000000E-10
       TAU_CUTOFF     1.0000000000000000E-10
       &XC_GRID
         XC_SMOOTH_RHO  NN10
         XC_DERIV  NN10_SMOOTH
       &END XC_GRID
       &XC_FUNCTIONAL  NO_SHORTCUT
         &PBE  T
         &END PBE
       &END XC_FUNCTIONAL
       &VDW_POTENTIAL
         POTENTIAL_TYPE  PAIR_POTENTIAL
         &PAIR_POTENTIAL
           R_CUTOFF     1.0000000000000002E+01
           TYPE  DFTD3
           PARAMETER_FILE_NAME dftd3.dat
           REFERENCE_FUNCTIONAL PBE
         &END PAIR_POTENTIAL
       &END VDW_POTENTIAL
     &END XC
     &PRINT
       &V_HARTREE_CUBE  SILENT
         ADD_LAST  NUMERIC
         FILENAME POTENTIAL
         STRIDE  8 8 1
         APPEND  T
         &EACH
           MD  50
           GEO_OPT  0
         &END EACH
       &END V_HARTREE_CUBE
       &MULLIKEN  SILENT
         FILENAME =CHARGE.mulliken
         &EACH
           MD  5
         &END EACH
       &END MULLIKEN
     &END PRINT
   &END DFT
   &SUBSYS
     &CELL
       A     1.0223900000000002E+01    0.0000000000000000E+00    0.0000000000000000E+00
       B     0.0000000000000000E+00    1.0223900000000002E+01    0.0000000000000000E+00
       C     0.0000000000000000E+00    0.0000000000000000E+00    2.6422000000000001E+01
       PERIODIC  XYZ
       MULTIPLE_UNIT_CELL  1 1 1
     &END CELL
     &COORD
Cu    9.6819706578588836E+00    3.7770886539469736E-02    2.5413273690773195E+01
Cu    1.9825312405305300E+00    2.5418099445019338E+00    2.5711434997374297E+01
Cu    9.9494538447701242E+00    1.0232320404713779E+01    2.8727672854279072E+00
Cu    2.1635334899671967E+00    2.5212186061559807E+00    2.6704083152778013E+00
Cu    1.9993410840832324E+00    1.0296265872085185E+01    2.5675670989588834E+01
Cu    9.6513274373520197E+00    2.5530463334768370E+00    2.5626893687015656E+01
Cu    2.2766877601882269E+00    1.0240977936413987E+01    2.6723622315030178E+00
Cu    9.7559727473366902E+00    2.5692586858973594E+00    2.9437954112413451E+00
Cu    3.5279889714982402E+00    1.2589635433775628E+00    2.3920549128360975E+01
Cu    7.0102444668186736E-01    3.9694494035808634E+00    2.3873001833575930E+01
Cu    3.3919291855359877E+00    1.3600946736807076E+00    1.0055592948445442E+00
Cu    8.1766736927347949E-01    3.8532876531896205E+00    1.0812250235214527E+00
Cu    9.8488931106028799E-01    1.4669389281494210E+00    2.3675300557808608E+01
Ag    3.3003738031893515E+00    3.9770329176605723E+00    2.3841559997541122E+01
Cu    7.2600425037075578E-01    1.3026709954416347E+00    1.0968538605398803E+00
Cu    3.4081732669659663E+00    3.9413097790911253E+00    9.6503515150589314E-01
Cu    4.7840338253029655E+00    1.0134202616259055E+01    2.5752457963167306E+01
Cu    7.1916875486703109E+00    2.6432469295781784E+00    2.5736188017849891E+01
Cu    4.8458317860431102E+00    1.0392938813729884E+01    2.8686600135345697E+00
Cu    7.1402988739448450E+00    2.5889664478632008E+00    2.7430606499128340E+00
Cu    7.2156390038502387E+00    1.0246394502738603E+01    2.5636520581710990E+01
Cu    4.8216265849306987E+00    2.6930095439494215E+00    2.5569788127029955E+01
Cu    7.4155371197899642E+00    1.0240390336447634E+01    3.0366527930953726E+00
Cu    4.5936132418340456E+00    2.6460143024638709E+00    2.7505564451563735E+00
Cu    8.3893867299900258E+00    1.1826028798356294E+00    2.3770031807310204E+01
Cu    5.9118499028710501E+00    3.8744729268140699E+00    2.3849614372146338E+01
Cu    8.4975597290511065E+00    1.3227027433398792E+00    1.2369795058265078E+00
Cu    5.9210837034313730E+00    4.0113671290973159E+00    1.1559798670200963E+00
Cu    5.9572944693191090E+00    1.4342145712032497E+00    2.3721371414599467E+01
Cu    8.3693556083776777E+00    3.8298773609499595E+00    2.3950748759202128E+01
Cu    5.9340520848672860E+00    1.2594481650321745E+00    1.0596984269087422E+00
Cu    8.4362793794630768E+00    3.9091286348430270E+00    1.0130821705847572E+00
Cu    9.7120328317647981E+00    5.0979950001500125E+00    2.5645909056799983E+01
Cu    2.0262952268248156E+00    7.7103045576470768E+00    2.5728048246179743E+01
Cu    9.5485899710992506E+00    5.1868824117296608E+00    2.9899082121380300E+00
Cu    2.1880865752449545E+00    7.7216513570206642E+00    2.9597798661010368E+00
Cu    2.0371783777259695E+00    5.1861616831852961E+00    2.5687514141522971E+01
Cu    9.7697665102024356E+00    7.7758942578997035E+00    2.5569989719087591E+01
Cu    1.8857961779546710E+00    5.1043911498138783E+00    2.8768548908928313E+00
Cu    9.9385626852034559E+00    7.6527230582125974E+00    2.8628790380903770E+00
Cu    3.3907608000469946E+00    6.5796216144869000E+00    2.3884803625048452E+01
Cu    9.3416187654512062E-01    8.9445992429918828E+00    2.3825389306004364E+01
Cu    3.3869731683725131E+00    6.4533557557434866E+00    1.0653903224597652E+00
Cu    8.2431090766628712E-01    9.0844084323579750E+00    9.5398277872706050E-01
Cu    7.7744166549434124E-01    6.3800278507246224E+00    2.3970076056230436E+01
Cu    3.4146845570134876E+00    8.9946366714264450E+00    2.3934275805554282E+01
Cu    7.4800900849673979E-01    6.4154320822802848E+00    1.0566139405431629E+00
Cu    3.4427355938011091E+00    8.9460373860800342E+00    1.0581824064879370E+00
Cu    4.5498316761653550E+00    5.1932661239946896E+00    2.5644185028249343E+01
Cu    7.2439894667883893E+00    7.6759254740935186E+00    2.5585649046523457E+01
Ag    4.4190838355511639E+00    5.1770447440516234E+00    3.0442031224696109E+00
Cu    7.2597162368760397E+00    7.6271057241783993E+00    2.8226703754202207E+00
Cu    7.2203560064206931E+00    5.2365721465338204E+00    2.5515442960032036E+01
Cu    4.6983825594926589E+00    7.6701678731199774E+00    2.5603682469358244E+01
Cu    7.1585416458064222E+00    5.2190389071771053E+00    2.8409735218701333E+00
Cu    4.6954509885494780E+00    7.8026550950893583E+00    2.8750406284962389E+00
Cu    8.5746875811085701E+00    6.4277191408970280E+00    2.3857725873057714E+01
Cu    6.0367658062789964E+00    9.0242853417338331E+00    2.3861642307105214E+01
Cu    8.5068141349728457E+00    6.4654406209869171E+00    8.9939493513469471E-01
Cu    6.0484236150862642E+00    8.9760254844142917E+00    1.1577809555291227E+00
Cu    5.9395108528996108E+00    6.3419969107053378E+00    2.3805062984955711E+01
Cu    8.5951186589795405E+00    8.9001176692235457E+00    2.3686941044007526E+01
Cu    5.9027202971460184E+00    6.4325527016929573E+00    1.0089637267015028E+00
Cu    8.5521469324120645E+00    8.9237028143095554E+00    1.2117717223150646E+00
O    5.6844499628104783E+00    6.9718838423647833E+00    5.8008467526944996E+00
H    5.5951448172023222E+00    7.4165183748347125E+00    4.9501876922685053E+00
H    4.7891763670328382E+00    6.7936215021271380E+00    6.1540779358675595E+00
O    8.8644266995964998E+00    6.3293491913499196E+00    6.2444230285214894E+00
H    7.9982672904075223E+00    6.1836293990649507E+00    6.7076882872671346E+00
H    8.5695496301282486E+00    6.4262023997421744E+00    5.3483756383787169E+00
O    1.9928296268457548E+00    7.3064624528592081E-01    1.5943796699472804E+01
H    2.1248283786912752E+00    1.1112830312765597E-02    1.6629034921779123E+01
H    2.6413045817994152E+00    5.1736893097985703E-01    1.5185213727424189E+01
O    4.6332541946211956E+00    1.0305893419609138E+01    5.0272622433959393E+00
H    3.9763144447457326E+00    9.7764475976386720E+00    5.5423919903961538E+00
H    4.3853167279277319E+00    1.0078496632557439E+00    5.4021283490932790E+00
O    8.9149436014083161E-01    1.0496126447836096E+01    5.9484278161429778E+00
H    1.0986142587642511E+00    1.0430270659762879E+00    6.4792876166367552E+00
H    9.2564261770077627E-01    1.0882403674010657E+01    5.0100864353473202E+00
O    7.2420362952965078E+00    2.8275666527878012E+00    1.2703915458884497E+01
H    6.9814229586516063E+00    2.0567616659024086E+00    1.3264831267259186E+01
H    7.8710269898219778E+00    2.6613590881364857E+00    1.1934562962993379E+01
O    1.5968731774717686E+00    4.6252021936699874E+00    1.6294101133265315E+01
H    1.8510083635233803E+00    4.4415309204965787E+00    1.5386835515153434E+01
H    1.3109870748545880E+00    5.5656426753634829E+00    1.6351092952948385E+01
O    8.9024167916761012E+00    8.8653185732054329E-01    2.0332318245782094E+01
H    9.0161036706535178E+00    3.0771118898417221E-01    1.9564783826344797E+01
H    8.1369501126380506E+00    1.4167603634252637E+00    2.0187744584160559E+01
O    7.3704975589227821E+00    3.7594785077775481E+00    2.0576777059104600E+01
H    8.3270345388973936E+00    3.9703749783156397E+00    2.0705173752454463E+01
H    7.1194115770416655E+00    3.9179169820783857E+00    1.9599296370255882E+01
O    2.5996036384526664E+00    7.2930201740071263E+00    1.3470542866670188E+01
H    3.3679401621182694E+00    6.8798632333810277E+00    1.3863163968970825E+01
H    2.8952501117238967E+00    7.3542041317126738E+00    1.2510575666094880E+01
O    7.7721291694883368E+00    1.2854839719928672E+00    1.7055235372612319E+01
H    7.2617311117476619E+00    1.5723106814296768E+00    1.6157227813814856E+01
H    8.3582966212286571E+00    2.0520269078827247E+00    1.7272300877922341E+01
O    1.2841345515850464E+00    9.2011278716362632E-01    2.1410897873665153E+01
H    1.0653166205967864E+01    1.0785484249969601E+00    2.0872091569326461E+01
H    1.9525065243368742E+00    1.5027877706188477E+00    2.1000021298669367E+01
O    6.2725348189293220E+00    4.2960996448651150E+00    1.8318521588829022E+01
H    5.3299610385832388E+00    4.4188140978845283E+00    1.8540335069023669E+01
H    6.6346004378662373E+00    4.9317340898646389E+00    1.7713599223083534E+01
O    7.7720089605200506E+00    2.6024907020104404E+00    9.0030337079882834E+00
H    6.9492767907886623E+00    3.2632548437393747E+00    9.0832214117064680E+00
H    7.8122932337023459E+00    2.5222529245662901E+00    8.0489145541556724E+00
O    7.4984947917248137E+00    5.2366441019974008E+00    1.6169740956286148E+01
H    7.6356703870277727E+00    6.2334864937275114E+00    1.6109539500278903E+01
H    8.0730465509759348E+00    4.7677799976291633E+00    1.5607539149999209E+01
O    9.1939744599291924E+00    3.1827171087906097E+00    1.1059455357566184E+01
H    8.8816249001503120E+00    2.9120673494950311E+00    1.0064793524658400E+01
H    1.0031795437344195E+01    2.6977339978659622E+00    1.1338056002200773E+01
O    4.7687849456583411E+00    7.7951305073502555E+00    1.7212276272935462E+01
H    4.4685192152146636E+00    8.7311391057928311E+00    1.7341919397883263E+01
H    5.7733753082559733E+00    7.9704504306841359E+00    1.7098667440224460E+01
O    5.8407571566937930E+00    4.3671795544959791E+00    9.0119638904072588E+00
H    6.3486968794605350E+00    5.1337628114033720E+00    8.5466413963445476E+00
H    5.1307586104700960E+00    4.2292640047670345E+00    8.3427332232733242E+00
O    8.1503795714872549E+00    2.4099328254958152E+00    6.2366773656615644E+00
H    7.8353145501206498E+00    1.6590632526976885E+00    5.6967601966170678E+00
H    9.0103304448914177E+00    2.7252415662309124E+00    5.9133129814697547E+00
O    4.2239120434090776E+00    1.5100955991076217E+00    1.2122851805500311E+01
H    4.2410461237744466E+00    2.5062493185231998E+00    1.2169840836061585E+01
H    4.8644895274270743E+00    1.1650934541507814E+00    1.1484630472497685E+01
O    2.9576731380094179E+00    7.8167914693926113E+00    1.0812328152795850E+01
H    3.8158971733896521E+00    7.7689253336837156E+00    1.0369186405416327E+01
H    2.6096030181970180E+00    8.7746338289556221E+00    1.0768986417245230E+01
O    5.1599894690012906E+00    9.3736010106379180E+00    2.0796433585070417E+01
H    5.3873861688645395E+00    9.8950819343374263E+00    2.1579620737721779E+01
H    4.1645924389322717E+00    9.0817170139534582E+00    2.0866721768718961E+01
O    1.1116953721251805E+01    6.8304545687941722E+00    2.0557732649223766E+01
H    1.0452224390728640E+01    6.8041885502516140E+00    1.9789468584768287E+01
H    1.0678755350174619E+01    7.3167603677243855E+00    2.1256315326433789E+01
O    2.8042179085417369E+00    3.6863254301899469E+00    1.3488577608473271E+01
H    3.2741222602041669E+00    4.4235722594168401E+00    1.3030015076604734E+01
H    3.4601373247712428E+00    3.4781137299849632E+00    1.4239623782814158E+01
O    8.6688382041790852E+00    5.7104422421862475E+00    1.1159070070360274E+01
H    9.0187696454229940E+00    4.7927969547246763E+00    1.1033686019071665E+01
H    9.4391182677095138E+00    6.2565655862474907E+00    1.0904229083180272E+01
O    4.8803716592187785E+00    3.5602498451732028E+00    1.5472466178179124E+01
H    5.5462816698463993E+00    4.2528430928176286E+00    1.5545075289943886E+01
H    4.6413577791873584E+00    3.1394780893481968E+00    1.6354035699430028E+01
O    3.2810670186104454E+00    5.2338619554057564E+00    2.0878308909933384E+01
H    2.7318201565571507E+00    5.7674484044472170E+00    2.1507392179093578E+01
H    2.9426169385257293E+00    5.4932883235416110E+00    1.9945177261806286E+01
O    9.6232279837179551E+00    3.6745070340403476E+00    1.7848846750838604E+01
H    1.0248411498952672E+01    4.1232635937158797E+00    1.7263827887623766E+01
H    1.0233041243050105E+01    3.1536824358503757E+00    1.8372131353316686E+01
O    7.4954119058337687E+00    8.8303311218387233E+00    1.1599158114799502E+01
H    7.7626987593331949E+00    9.1847264254112684E+00    1.2516917934185312E+01
H    6.8839269431596755E+00    8.0083202034300438E+00    1.1817390334385014E+01
O    3.8974735635906081E+00    2.2922100891016939E+00    1.7640019330455445E+01
H    3.0645371442591407E+00    1.8408321028666061E+00    1.7199047044790589E+01
H    4.5833702189551673E+00    1.5906032261232868E+00    1.7784672859366047E+01
O    8.3512594070395008E-01    5.4925255860212125E+00    7.3465607905439070E+00
H    8.4541821185801436E-01    6.0354559140539088E+00    8.1889780740642344E+00
H   -7.9594106239665473E-06    5.8153458506965316E+00    6.9218828073746543E+00
O    8.4926341859028316E+00   -9.2963124195407898E-01    1.4067094451529183E+01
H    9.0853414344529071E+00   -1.6458632800579551E-01    1.4328665010251596E+01
H    9.1185101985973489E+00    8.5720915876969119E+00    1.3659019381629673E+01
O   -7.6333353696194006E-01    8.9671165767362098E+00    9.6624007275346493E+00
H    9.0041594264689930E+00    9.0962746754850752E+00    8.8169083241785273E+00
H    8.7941224980881678E+00    8.6880411665391239E+00    1.0356279677724881E+01
O   -3.0157504998693505E-03    6.6670840191270218E+00    1.3994570931588587E+01
H    8.7134464936690470E-01    6.9295624482376548E+00    1.3593689779505826E+01
H    1.0090278187440154E+01    5.7309016940469553E+00    1.3802124728875434E+01
O    5.2382933557779152E+00    8.3721966940414436E+00    8.8418117129836116E+00
H    4.5592943588672004E+00    8.4240517202793495E+00    8.0932463423825833E+00
H    5.4651371524515149E+00    9.2953211124830677E+00    9.0820072311683067E+00
O    3.0849610799841929E+00    3.5591990892263445E+00    8.1412666958604945E+00
H    2.9873645121323205E+00    3.3753597749716988E+00    7.1684156248392368E+00
H    2.3703203382448903E+00    4.0995476671880731E+00    8.5450376787895763E+00
O    5.7781847204305041E+00    5.6278435557278925E+00    2.1684539982534581E+01
H    4.8098171514383790E+00    5.5810233761865931E+00    2.1343627490855020E+01
H    6.3280953932716679E+00    4.8526675134349233E+00    2.1391969719166255E+01
O    7.4300547828704016E+00    8.0445185592704629E+00    1.6504983142367575E+01
H    8.1259815948058698E+00    8.3812941565355565E+00    1.7183549834483756E+01
H    7.6866418602138333E+00    8.5315969820293738E+00    1.5670235058217218E+01
O    5.4410179755597721E+00    4.3677167908626446E-01    1.8218840534502370E+01
H    5.3778438455829960E+00    3.4301779615097083E-01    1.9182821007869382E+01
H    6.3975369882338109E+00    7.3717511433324279E-01    1.8052222624930856E+01
O    2.0139288160072146E+00   -6.1077407088193161E-03    1.0269343897539203E+01
H    1.2194578980786179E+00   -2.6225350668384650E-01    9.8214309564282072E+00
H    2.6419107926721530E+00    3.9758337115639780E-01    9.5373854754154177E+00
O    3.0825008798938605E+00    2.3880538227942760E+00    2.0280526039536650E+01
H    2.9248147253375780E+00    3.2974879962786914E+00    2.0755333132169753E+01
H    3.1455072834853222E+00    2.7048488288076862E+00    1.9329502968975714E+01
O    7.2140630981664433E+00    6.5691700515836180E+00    8.4554115192397905E+00
H    6.5609131997906820E+00    7.3072814643984128E+00    8.4731978690864995E+00
H    7.4780528105331001E+00    6.3586946224642489E+00    9.3945889633635495E+00
O    6.4370469033571609E-01    6.8701304073967293E+00    9.6355339776039699E+00
H    1.4808734799281259E-01    7.7459907683629776E+00    9.4914391885866554E+00
H    1.5298444522802792E+00    7.0749678429309730E+00    9.9761740916352899E+00
O    1.0918975805796127E+00    1.9585356865189301E+00    1.1970472781364398E+01
H    1.7362239676643687E+00    1.2808713298651939E+00    1.1561953860418464E+01
H    1.6204508241870204E+00    2.6985770710852157E+00    1.2354366924138647E+01
O    6.3575494867665583E+00    1.3926908174680293E+00    1.4842004526142253E+01
H    5.7637616573013029E+00    7.0381426395598401E-01    1.4648571671005440E+01
H    5.7422264714947078E+00    2.2384209173994534E+00    1.4856530088713859E+01
O    9.1518247326464124E+00    3.9116737264250681E+00    1.4456141283372206E+01
H    8.4775107674784991E+00    3.6598086130658292E+00    1.3714261537114169E+01
H    9.4181649173335646E+00    3.0129301076664441E+00    1.4710989335711389E+01
O    6.8832790015464811E+00    7.4360525519305094E+00    1.9933863346672290E+01
H    6.2418507458315320E+00    8.1442141671929988E+00    1.9886955996487607E+01
H    6.4619442976120851E+00    6.7507571095052983E+00    2.0545567031194825E+01
O    8.6406906640025589E+00    8.6148881785366971E+00    2.1629156740638710E+01
H    7.8464942014831953E+00    8.3104602124488505E+00    2.1106653771511972E+01
H    8.6794897935212685E+00    9.5752482541802806E+00    2.1319026138113582E+01
O    3.7967702156145822E+00    2.6649043599905959E+00    5.6784122228833533E+00
H    3.5776590028760511E+00    2.7518020021032665E+00    4.7230035509608870E+00
H    4.6448371633962688E+00    3.1813588177348744E+00    5.8124039491029720E+00
O    1.0080822076821182E+01    1.2508970931603303E+00    1.4526091846560876E+01
H    3.9383559867104884E-01    1.3845950065401815E+00    1.3704319963907949E+01
H    6.0458555000869407E-01    1.0180336024613388E+00    1.5196132439175161E+01
O    3.7293201015304325E+00    1.0293254917008194E+00    8.5920716914225466E+00
H    4.5584172566789949E+00    6.6787147919916112E-01    8.8691566670986521E+00
H    3.6866560489185236E+00    2.0296638695341427E+00    8.6371865126026499E+00
O    5.9963165512687198E+00    4.1805831119458841E+00    5.7915018575816521E+00
H    6.7537917197077570E+00    3.7067278539212944E+00    5.4236138108237304E+00
H    5.8072563881013783E+00    5.0612466149326893E+00    5.3512821774803161E+00
O    9.0858413725941158E+00    6.3255945639358604E+00    1.8874018774437342E+01
H    8.8347955954041471E+00    5.3833954296685862E+00    1.8624947495817249E+01
H    8.2655452440750423E+00    6.7447689939350930E+00    1.9272857286876285E+01
O    9.4695080198620261E+00   -4.5910756773175881E-01    1.8107383112125319E+01
H    1.0378435692246056E+01   -7.2831968211495490E-01    1.7843575121075702E+01
H    9.1380874372479237E+00    9.5529184498945444E-02    1.7346908970787080E+01
O    6.0967772308006865E+00    3.8440224516369503E-01    1.0124962123856191E+01
H    6.6362327776441559E+00    1.1391693892190475E+00    9.8441278666226033E+00
H    6.6061957488278100E+00   -2.3832224941854571E-01    1.0750769852023627E+01
O    2.9167462727817584E+00    6.3490645495115992E+00    5.9283226714086226E+00
H    2.7613087710479696E+00    6.1873124732121632E+00    5.0204027105059392E+00
H    2.1531164480158713E+00    5.9367253140278464E+00    6.4224508293968521E+00
O    3.2033859813581458E+00    5.6823007945019555E+00    1.8278447454437039E+01
H    3.7608082142001731E+00    6.4052816456082535E+00    1.7889425372775300E+01
H    2.7079657694703037E+00    5.1084916374422820E+00    1.7638025656378893E+01
O    6.5185332182732125E+00    6.4760398957324767E+00    1.2425937589765295E+01
H    7.3601091915980366E+00    6.1515384548358352E+00    1.2105710128107660E+01
H    5.8636143860462555E+00    5.7727283175620432E+00    1.2095441715840463E+01
O    7.1730629453961123E+00    1.0344550335131308E+01    5.1575368111809832E+00
H    6.1835201526382138E+00    1.0177953508654245E+01    5.2982621406352433E+00
H    7.6642099138113187E+00    9.7431839978013386E+00    5.7142568767136330E+00
O    3.9402669450006882E+00    1.0171299692737609E+01    1.4204341635971964E+01
H    3.5111882310824019E+00    9.2669294624669334E+00    1.3912541981665125E+01
H    3.9500149775486180E+00    5.6426091278589774E-01    1.3436180890652119E+01
O    5.5394460213298657E-01    6.9906888657293687E+00    1.6531062425128571E+01
H    9.9890978466232188E+00    6.6699127294119949E+00    1.7043677454249217E+01
H    2.3120361668405148E-01    6.9663527342614868E+00    1.5572327484986523E+01
O    2.5317972254270233E+00    9.0032203276448097E+00    2.0368417684481223E+01
H    2.0018045929957888E+00    9.7011736454343094E+00    2.0940153440035662E+01
H    2.0921977630873809E+00    8.0903538310522602E+00    2.0511914408251094E+01
O    4.8454175558519275E+00    6.4733901952598449E+00    1.4699493733352671E+01
H    5.6314960712611120E+00    6.6883823681512142E+00    1.4229743241075282E+01
H    4.8111255386851841E+00    7.0069300000991097E+00    1.5562602282003402E+01
O    3.0481157765277005E+00    9.0026103871917016E+00    6.5396703900645550E+00
H    2.1780427074446469E+00    9.5121886396264372E+00    6.4114307817660849E+00
H    2.9360965714871110E+00    8.0873114374522341E+00    6.1136937603391521E+00
O    5.0401472070303752E+00    4.2888593072029675E+00    1.1608156628726476E+01
H    5.9017000790200820E+00    3.9693703276963617E+00    1.1974299054144595E+01
H    5.2351449130972911E+00    4.4056004873459003E+00    1.0625258950246629E+01
O    8.8855003302801894E+00    9.1013980285411744E+00    6.8631136681103229E+00
H    8.9822396987023261E+00    8.1474097157046117E+00    6.7066626979609127E+00
H   -4.5928105718011819E-01    9.5645746943928636E+00    6.5791462335558428E+00
O    6.9285623143721609E-01    3.0067631473826912E+00    5.9103587869174135E+00
H    7.7473179822638572E-01    3.7960926298227542E+00    6.5256769487542963E+00
H    9.5471411983850718E-01    3.3010569056963983E+00    5.0395224929326501E+00
O    2.0236744254041894E+00    9.1052385353995149E+00    1.7839763623612434E+01
H    2.2144759358614596E+00    9.1330163656643126E+00    1.8784225121615741E+01
H    1.8635827002180831E+00    8.1697088791382360E+00    1.7544024633570054E+01
O    1.0107307517922557E+01    3.8936477776397380E+00    2.0866160297076306E+01
H    1.0462376731631130E+01    4.7854967301938149E+00    2.0756092354707299E+01
H    1.0116503608465921E+01    3.7155159222627061E+00    2.1858886258601729E+01
O    5.7147362366280383E+00    1.7762000349566616E+00    2.1516574628870980E+01
H    6.2777305747621188E+00    2.5775679648828254E+00    2.1418630686784919E+01
H    4.8230462109773189E+00    1.9407585969871604E+00    2.1128900913363349E+01
     &END COORD
     &VELOCITY
           1.1303784531987524E-05    1.1434493299641087E-04   -3.0501474376015881E-05
          -5.6956920366984808E-05   -5.1298440877758125E-05    2.0180779167277377E-05
          -5.0097459874521595E-06   -8.5273493170286843E-05   -6.9867706965607860E-07
          -2.0760640486754847E-05   -1.6509920631456090E-05   -4.4454272502413340E-05
          -6.2509552409837065E-05    1.1875059143400160E-04    8.5636478672053497E-05
           9.4114558682969815E-05    6.4080287149837880E-05   -1.5521345831891667E-04
          -8.6331412105715761E-05   -2.6786561555360298E-05    7.8324955296168915E-05
          -7.1183173327273743E-05    8.2506019219617420E-05   -9.2190082098856532E-05
           3.8366716934598497E-06   -9.8791037383123950E-05   -5.5964790807379055E-05
          -1.9312532250562972E-04   -7.8490800935553017E-05   -3.5022944746010757E-05
          -3.2753869228121097E-05   -8.6507324982440590E-06   -4.1914786867736447E-05
           6.5003767254948121E-05    1.9633803245196272E-04    5.6953060486804782E-05
          -1.0124711234834570E-04   -7.0172723286780544E-05   -4.3436984061080204E-05
          -2.3557135916237315E-05    7.6100801583107988E-05   -4.0247504504345334E-06
          -3.1580686223995480E-05   -1.3253440416945812E-04    4.4315468805057605E-05
          -8.1764114707516948E-05   -7.9834760477930599E-06   -1.6523806359985339E-05
           1.5902778342433274E-04    7.6845082406946732E-05   -1.3338137357952074E-05
          -1.4187061703197832E-04   -9.9395187695389443E-05    4.4124412618362654E-05
          -4.9457774228590728E-05   -9.1953061994439793E-05   -8.8222117460551170E-05
           2.5425949049936808E-05   -1.6325069071204058E-04   -4.7503227330804445E-05
           6.6851144797843313E-05    4.5983580179233002E-05   -1.0142331038301838E-04
           9.4688944858622534E-05    1.1492803892914824E-04   -7.2932487485970955E-05
           6.9680550538763942E-06   -7.5270450753513971E-05   -9.1159742919997696E-05
           8.8014804929027892E-05    5.3616828922854500E-05    3.9373560708982598E-05
           9.0237392784060211E-05   -1.6992855005272688E-04   -1.0610456045557252E-04
          -1.1358972324747019E-04   -1.1629067552415632E-05   -1.6646884799909959E-06
          -1.0505597662310678E-04    5.7102650684290394E-05   -1.2448002813008190E-04