274
traj_500
Cu    9.737549    0.122891    25.831997
Cu    1.940598    2.490644    25.920775
Cu    9.756463    10.143336    3.092167
Cu    2.034965    2.456190    3.010258
Cu    2.049176    0.092424    25.789457
Cu    9.594721    2.658623    25.928437
Cu    1.900010    10.149368    3.009466
Cu    9.765256    2.693998    3.071822
Cu    3.341784    1.433289    24.061194
Cu    0.655556    3.902974    24.137554
Cu    3.238216    1.325120    1.352806
Cu    0.724159    3.842346    1.279882
Cu    0.715673    1.429301    23.934104
Ag    3.255392    3.977506    23.893150
Cu    0.724977    1.285042    1.276447
Cu    3.289540    3.837848    1.320043
Cu    4.726713    0.068500    25.712834
Cu    7.147426    2.681933    25.949839
Cu    4.516510    0.131786    3.270779
Cu    7.043960    2.608015    3.166148
Cu    7.151823    10.134543    25.882463
Cu    4.680910    2.547898    25.832261
Cu    7.159184    10.101827    2.990706
Cu    4.433083    2.706778    3.049099
Cu    8.405068    1.304979    24.142838
Cu    5.892443    3.818933    24.115888
Cu    8.262649    1.308966    1.248175
Cu    5.865145    3.955729    1.272484
Cu    6.054798    1.331663    24.220255
Cu    8.381860    4.002964    24.172695
Cu    5.798792    1.317861    1.227830
Cu    8.433286    3.845311    1.350164
Cu    9.683465    5.195990    25.976261
Cu    1.953890    7.726406    25.820371
Cu    9.550861    5.101113    2.922802
Cu    2.007565    7.724872    3.136820
Cu    1.993763    5.151721    25.930815
Cu    9.723440    7.766074    25.805839
Cu    1.896636    5.125548    3.002596
Cu    9.741843    7.650647    2.947374
Cu    3.237296    6.477250    24.077840
Cu    0.786831    9.160410    24.051418
Cu    3.202228    6.500356    1.136410
Cu    0.836724    8.948468    1.222282
Cu    0.752377    6.408034    24.010993
Cu    3.477148    9.022285    24.019712
Cu    0.742460    6.372455    1.214355
Cu    3.339739    9.058171    1.130597
Cu    4.499538    5.193741    25.880085
Cu    7.084549    7.730598    26.001626
Ag    4.511296    5.259583    3.256512
Cu    7.097022    7.612205    3.175660
Cu    7.057967    5.200591    25.809010
Cu    4.663428    7.787954    25.692489
Cu    7.146302    5.185767    3.030603
Cu    4.655248    7.737856    2.981458
Cu    8.303443    6.602390    24.138611
Cu    5.974131    8.884160    24.007293
Cu    8.537161    6.475512    1.266671
Cu    5.767404    9.019525    1.290186
Cu    5.757078    6.391880    23.948108
Cu    8.538388    9.123399    24.052739
Cu    5.841834    6.410999    1.271955
Cu    8.431241    9.054286    1.237342
 O    6.364071    7.302727    6.518307
 H    5.712297    7.558529    5.834770
 H    5.950208    7.650851    7.355621
 O    8.866575    6.347713    5.872554
 H    7.932111    6.354256    6.207585
 H    8.732335    6.238010    4.919248
 O    0.839893    1.465392    16.804392
 H    0.561292    0.792454    17.479738
 H    1.457928    1.003271    16.171585
 O    4.334013    0.216849    5.451123
 H    3.680502    9.791634    5.960539
 H    3.957672    1.104283    5.768451
 O    0.865249    0.325733    6.127790
 H    0.698906    1.270013    6.286322
 H    1.082302    0.198957    5.166294
 O    6.792248    3.041508    12.396146
 H    6.606173    3.034147    13.394633
 H    7.731518    3.299048    12.380821
 O    0.601677    5.267149    17.327283
 H    0.153665    5.244350    16.464605
 H    0.168592    5.998567    17.797595
 O    7.811366    1.398016    21.078415
 H    7.830996    0.969635    20.171612
 H    7.205089    2.199570    20.933094
 O    6.490643    3.898271    21.298510
 H    7.360492    4.536140    21.372756
 H    6.173498    4.145689    20.372683
 O    1.758818    8.343725    13.589891
 H    2.024946    7.553111    14.124673
 H    2.058276    8.307532    12.644248
 O    6.759838    2.748082    17.479738
 H    6.856147    2.925160    16.486535
 H    7.636026    3.029648    17.984663
 O    0.526020    1.675493    21.675552
 H    9.832836    1.819241    21.349504
 H    1.082711    2.374092    21.242495
 O    5.418463    4.634903    18.886446
 H    4.602902    4.983129    18.482717
 H    5.812389    4.105509    18.128927
 O    8.361412    4.095285    9.154695
 H    7.755442    4.827112    9.476515
 H    9.108779    4.518759    8.598511
 O    6.572843    6.461403    15.493861
 H    6.907165    7.448622    15.537721
 H    7.355483    5.947549    15.258705
 O    9.324504    3.619772    11.857929
 H    9.159796    3.555055    10.921534
 H    9.907061    2.809323    11.941951
 O    4.083937    8.372045    16.734638
 H    3.585931    9.233102    16.404099
 H    5.076166    8.574171    16.678359
 O    3.775277    4.444023    9.366071
 H    4.503015    4.406705    8.679627
 H    3.281054    5.222470    9.061161
 O    7.394742    2.627747    5.400657
 H    7.301807    1.655658    5.809405
 H    8.309781    2.924444    5.342264
 O    4.561802    1.217666    14.253084
 H    3.985072    2.046314    13.769825
 H    4.910641    0.614354    13.585928
 O    2.394642    8.755748    10.841475
 H    3.307023    8.819443    10.389395
 H    1.773029    9.436149    10.398907
 O    3.364481    8.980265    21.798150
 H    3.634596    9.994885    21.815060
 H    2.415499    8.910333    21.561937
 O    8.686737    7.840402    20.992015
 H    8.157139    7.822408    20.134885
 H    7.940392    8.125445    21.580168
 O    3.116654    3.281872    13.429774
 H    3.770063    3.811572    12.901598
 H    3.169205    3.702994    14.351109
 O    9.071871    6.259992    12.205114
 H    9.055104    5.292504    12.098898
 H    9.563641    6.669459    11.475867
 O    3.588691    4.016970    15.740642
 H    3.415294    5.028318    15.673266
 H    3.188937    3.702381    16.612832
 O    2.517329    5.838358    21.165343
 H    1.786320    6.204987    21.736587
 H    2.306205    6.157344    20.202261
 O    8.996828    3.360187    18.798989
 H    9.704321    3.881299    18.310182
 H    8.831814    4.061751    19.473014
 O    5.934667    9.631732    12.735668
 H    6.777628    9.935484    13.167139
 H    5.834677    8.664346    12.924586
 O    2.575503    2.812697    18.136325
 H    1.804518    2.206215    17.738145
 H    3.262958    2.073816    18.172523
 O    0.357019    5.372250    7.663437
 H    0.280748    5.927306    8.527172
 H    9.930065    5.821386    7.129712
 O    8.022797    0.314794    14.114632
 H    8.423573    1.127594    14.543990
 H    8.746035    9.902870    13.918053
 O    9.087207    9.068190    9.170812
 H    8.902461    9.066452    8.132163
 H    8.159490    9.213370    9.612852
 O    9.268988    8.105917    14.049106
 H    0.039975    8.231978    13.766390
 H    8.950104    7.374192    13.405730
 O    4.574684    8.548510    9.017564
 H    3.819036    8.969836    8.457154
 H    5.260708    9.212347    9.334364
 O    2.363459    1.869236    8.717675
 H    2.577547    2.101011    7.814042
 H    2.886718    2.542070    9.156280
 O    5.498618    6.578977    21.790223
 H    4.535220    6.634800    21.548726
 H    5.694917    5.625701    21.785996
 O    6.678558    9.359060    16.176077
 H    7.108166    9.651566    16.996480
 H    7.182290    9.678455    15.381832
 O    4.849911    1.387077    18.592105
 H    4.984662    1.661793    19.515289
 H    5.541456    1.909927    18.115187
 O    0.680503    0.609242    10.326774
 H    10.183413    0.200695    9.874430
 H    1.190471    1.179122    9.626591
 O    2.421326    3.278907    20.830048
 H    2.515795    4.311828    21.044859
 H    2.443205    3.167160    19.825219
 O    7.371432    6.440546    9.954489
 H    6.548715    6.902973    9.797278
 H    7.592268    6.459971    10.927611
 O    0.335037    7.081789    9.886584
 H    9.930065    7.828440    9.584052
 H    1.195174    7.495959    10.021865
 O    0.701666    1.575605    12.733554
 H    0.526633    1.083733    11.882238
 H    1.667007    1.884469    12.775565
 O    6.079744    3.159083    15.136107
 H    5.632142    2.276556    14.951681
 H    5.394743    3.841630    15.189479
 O    9.475102    5.033533    14.956966
 H    9.888045    5.524178    14.227454
 H    9.600140    4.031897    14.886947
 O    5.009302    8.973108    19.496265
 H    4.827317    9.782534    19.025161
 H    4.309783    8.933746    20.185351
 O    6.521008    9.330638    21.956418
 H    5.967997    9.081890    21.192029
 H    6.831917    0.057152    21.797357
 O    3.511092    2.629996    6.216568
 H    3.116654    2.846743    5.306330
 H    4.342908    3.152949    6.281830
 O    9.494016    2.261322    14.882720
 H    10.089558    2.040690    14.108027
 H    10.088331    2.129229    15.689119
 O    6.599834    1.866986    8.792713
 H    7.361617    2.423473    8.908970
 H    6.634902    1.299764    7.970461
 O    5.444533    4.298025    6.750821
 H    6.165216    3.869746    6.256465
 H    5.402922    5.218892    6.464935
 O    7.056331    7.149880    18.686960
 H    6.679376    6.239442    18.846020
 H    6.261934    7.751557    18.785514
 O    7.955012    0.190676    18.739011
 H    8.933235    10.084037    18.630152
 H    7.966770    0.957366    18.136325
 O    6.578875    9.844184    10.079200
 H    6.593393    0.647991    9.862540
 H    6.342294    9.734482    11.023258
 O    2.301911    6.625292    6.434285
 H    2.522134    6.498822    5.483622
 H    1.521112    6.108678    6.680803
 O    2.830487    6.171862    18.601088
 H    3.432265    6.756158    18.125492
 H    2.173090    5.834780    17.912795
 O    5.064920    7.069725    13.282604
 H    5.687351    6.833553    13.973803
 H    5.215211    6.424699    12.568945
 O    6.954297    0.356712    6.147343
 H    6.055616    10.172781    5.963710
 H    7.662609    9.918205    5.931211
 O    2.496472    0.019119    15.436789
 H    2.241079    9.696653    14.675571
 H    3.237296    0.577957    15.049971
 O    9.270726    7.328798    17.217632
 H    8.289436    7.340045    17.523863
 H    9.223900    7.449031    16.236583
 O    0.715673    9.121457    20.939171
 H    0.481034    10.063896    21.107743
 H    10.105303    8.593801    21.210789
 O    3.123299    6.653510    15.085905
 H    3.686636    6.587054    14.321517
 H    3.400980    7.315712    15.772349
 O    2.706062    9.041915    6.974615
 H    1.959717    9.696551    6.839599
 H    2.501686    8.136486    6.693749
 O    4.770063    4.622839    11.972072
 H    5.591246    4.049176    12.007742
 H    4.602391    4.640321    11.031449
 O    8.982514    8.910947    6.278131
 H    9.132090    7.997952    6.046146
 H    9.805538    9.503115    6.161346
 O    0.260914    2.969430    6.133603
 H    0.572641    3.692157    6.716208
 H    0.426746    3.243430    5.187960
 O    0.067989    9.630607    18.278211
 H    0.632144    9.370204    19.051319
 H    10.060829    8.760042    17.793896
 O    8.846945    5.032204    20.948947
 H    8.798688    6.053264    21.040103
 H    9.522438    4.772823    21.625614
 O    4.211020    1.630303    21.719148
 H    4.791635    2.114098    22.339801
 H    3.494325    2.269604    21.382268
