274
traj_6000
Cu    9.439625    0.011655    26.048393
Cu    1.762703    2.611797    26.076664
Cu    9.223491    10.186685    3.185965
Cu    1.780083    2.664348    3.462339
Cu    1.640936    0.023924    25.879556
Cu    9.332069    2.643696    26.040202
Cu    1.564154    0.056436    3.275800
Cu    9.489006    2.614660    3.243565
Cu    2.830896    1.266128    24.275212
Cu    0.175033    3.935179    24.245620
Cu    2.900214    1.423780    1.573430
Cu    0.388610    3.790306    1.336689
Cu    0.312545    1.323279    24.074405
Ag    2.759635    3.941109    23.912438
Cu    0.320315    1.249361    1.490465
Cu    3.010427    3.955934    1.511338
Cu    4.288722    0.076475    26.010345
Cu    6.781922    2.551885    25.991321
Cu    4.218279    0.040078    3.441201
Cu    7.017072    2.661895    3.344497
Cu    6.735301    0.105306    25.960672
Cu    4.267354    2.571924    26.102558
Cu    6.719045    0.154074    3.097715
Cu    4.412840    2.723749    3.372504
Cu    7.913605    1.305285    24.241128
Cu    5.401389    3.901338    24.381429
Cu    8.036803    1.342807    1.417540
Cu    5.575808    3.825783    1.506847
Cu    5.479908    1.406195    24.113246
Cu    7.923727    3.912278    24.288159
Cu    5.553214    1.300378    1.448982
Cu    8.170123    3.729985    1.493371
Cu    9.284017    5.098863    26.185259
Cu    1.565075    7.648193    26.012459
Cu    9.280950    5.208770    3.156636
Cu    1.659952    7.594313    3.225334
Cu    1.638175    5.112154    25.978903
Cu    9.353846    7.674571    26.035710
Cu    1.484817    5.135465    3.166941
Cu    9.294752    7.795008    3.189928
Cu    3.015028    6.532356    24.355535
Cu    0.370310    9.039257    24.257510
Cu    2.871996    6.505774    1.450832
Cu    0.516716    8.911662    1.400630
Cu    0.468357    6.344237    24.204137
Cu    2.914732    8.991409    24.098714
Cu    0.390757    6.432776    1.480160
Cu    2.906348    9.143643    1.209599
Cu    4.302115    5.199671    26.209567
Cu    6.984355    7.763416    25.979960
Ag    4.274204    5.270523    3.426141
Cu    6.794906    7.859316    3.122024
Cu    6.833348    5.213576    26.018536
Cu    4.336672    7.796235    25.988679
Cu    6.866167    5.255289    3.154258
Cu    4.139862    7.832325    3.067066
Cu    8.237192    6.272465    24.202552
Cu    5.590326    8.993454    24.068592
Cu    8.130659    6.632960    1.344880
Cu    5.502401    9.034554    1.335368
Cu    5.665472    6.418462    24.364519
Cu    8.248643    8.971983    24.123022
Cu    5.599119    6.354767    1.421504
Cu    8.183823    9.047640    1.378436
 O    5.887433    7.092217    6.547372
 H    6.113177    7.227377    5.563152
 H    4.911153    7.134135    6.581984
 O    9.028624    6.532970    5.839526
 H    8.796132    6.417031    4.862441
 H    9.980673    6.291072    5.877574
 O    1.073816    1.190778    16.323247
 H    0.520397    0.699621    17.027129
 H    1.611798    0.425519    15.950433
 O    4.502912    0.365607    5.443725
 H    3.875472    10.021671    6.023159
 H    4.381861    1.355382    5.705302
 O    1.051937    0.767508    6.979107
 H    1.771291    1.446477    6.908032
 H    0.766179    0.730191    6.049581
 O    6.522337    2.525610    12.450575
 H    6.673957    2.215826    13.417884
 H    7.303034    2.189653    11.982905
 O    1.984970    5.595540    17.217632
 H    1.774665    4.767200    16.674924
 H    1.452816    6.311827    16.815753
 O    7.216233    1.387792    21.134694
 H    7.434513    1.472446    20.166063
 H    7.207645    2.279419    21.534458
 O    7.142008    4.083017    21.372756
 H    7.986195    4.522440    21.633541
 H    7.003678    4.243327    20.402012
 O    2.716388    7.164705    14.001018
 H    3.374807    6.545647    14.496430
 H    2.927920    7.194149    13.068057
 O    8.126671    3.405581    17.206799
 H    8.215619    3.610877    16.259835
 H    8.981083    3.723647    17.612113
 O    0.048972    1.683365    21.808983
 H    9.322152    1.664246    21.579904
 H    0.497290    2.544524    21.467082
 O    6.518963    4.902053    18.724479
 H    5.535322    4.789386    18.777059
 H    6.870870    4.243123    18.050189
 O    9.247006    3.665575    8.652412
 H    8.922500    4.569470    8.658489
 H    9.183823    3.249871    7.734512
 O    8.505774    4.133932    14.630390
 H    8.524074    3.318269    14.152680
 H    9.455983    4.417338    14.629069
 O    9.115731    3.059707    11.321827
 H    9.390448    3.123095    10.353461
 H    9.869335    2.570186    11.703096
 O    4.982924    7.968201    16.691042
 H    4.367650    8.703606    16.492612
 H    5.873119    8.591143    16.574521
 O    4.369081    5.069316    9.311377
 H    4.473365    6.034759    9.406760
 H    5.116551    4.715774    8.877528
 O    8.328491    2.830384    6.177199
 H    7.947651    1.917186    6.178256
 H    8.702788    2.945097    5.238690
 O    4.291482    0.649013    13.268864
 H    4.221244    1.466925    12.691808
 H    4.790613    0.010224    12.683353
 O    2.776505    8.044165    11.217724
 H    3.436968    8.058989    10.484514
 H    2.465800    8.991409    11.151141
 O    2.911051    9.087718    21.690084
 H    2.985379    10.086184    21.710165
 H    1.936611    8.860952    21.749005
 O    8.518656    7.345770    20.942870
 H    8.125342    7.419382    20.004096
 H    7.897554    7.728655    21.663398
 O    3.081688    3.452100    13.562413
 H    3.690623    4.096921    13.032123
 H    3.550760    3.343931    14.424034
 O    9.130249    5.946527    11.866120
 H    9.202226    4.919229    11.867441
 H    9.763620    6.191083    11.118906
 O    4.342602    3.199161    16.021508
 H    4.447090    4.184029    15.967079
 H    3.732541    3.055617    16.776913
 O    2.983436    5.569572    21.133372
 H    2.195787    6.143746    21.412125
 H    3.267149    5.762088    20.204111
 O    10.184231    4.109497    18.834923
 H    0.638278    4.586953    18.320222
 H    10.036700    4.630813    19.651627
 O    6.405682    8.955012    12.326391
 H    7.165523    9.154889    12.967653
 H    6.268273    7.962885    12.519800
 O    2.850014    2.096513    18.359591
 H    2.348634    1.702177    17.600223
 H    3.724158    1.538084    18.422211
 O    1.596053    4.223289    9.532001
 H    1.352622    5.142417    9.732544
 H    0.678049    3.909006    9.412838
 O    8.590734    9.296183    14.017135
 H    8.938040    0.037828    14.015550
 H    9.338204    8.692258    13.837466
 O    9.884978    8.985070    9.101851
 H    9.819034    9.103974    8.118688
 H    8.927203    9.065328    9.387472
 O    0.035579    7.181267    13.883440
 H    1.027604    7.029749    14.048577
 H    9.971676    6.636027    13.037936
 O    4.507104    7.969939    9.232111
 H    3.955422    8.417132    8.516867
 H    5.304262    8.483383    9.443487
 O    3.062160    2.034965    8.496258
 H    3.981289    1.732133    8.550952
 H    3.051834    2.872711    8.972911
 O    5.158162    5.450770    22.516564
 H    4.289744    5.423063    22.042554
 H    5.872710    4.918821    22.115478
 O    7.114914    9.486961    16.220202
 H    6.875982    0.016869    15.694932
 H    7.796133    9.207031    15.529795
 O    5.054696    0.336469    19.094123
 H    4.947038    0.738779    19.957858
 H    5.950514    0.644821    18.769925
 O    1.896942    0.339740    10.233505
 H    1.064308    10.083219    9.945241
 H    2.062467    0.983028    9.461190
 O    1.993252    3.154993    20.911163
 H    2.229117    4.206419    20.966121
 H    2.040588    2.909415    19.972126
 O    7.684999    5.829770    8.957586
 H    7.477454    6.610876    8.437601
 H    7.960431    6.317041    9.755002
 O    0.626930    6.703300    10.091090
 H    0.369492    7.451178    9.508221
 H    1.427052    6.975971    10.689549
 O    1.128105    1.677435    12.415434
 H    1.454043    1.038339    11.635985
 H    1.937020    2.195174    12.659837
 O    6.316837    1.518760    14.833311
 H    5.543501    1.141396    14.312533
 H    5.965748    2.156936    15.493332
 O    1.109702    3.853490    15.504694
 H    1.738779    4.156629    14.785223
 H    1.281361    2.871689    15.684892
 O    5.150290    7.959920    20.080192
 H    4.962068    8.744706    19.492302
 H    4.343215    8.001735    20.692125
 O    6.555462    8.992636    22.113364
 H    5.999385    8.589303    21.399706
 H    6.690725    9.938755    21.848352
 O    4.534402    2.840097    5.538315
 H    3.639402    3.211531    5.811255
 H    5.155504    3.572946    5.959482
 O    9.496981    1.588590    14.115689
 H    10.214392    1.509763    13.357642
 H    9.997645    1.390041    14.949568
 O    5.833451    1.622840    8.670908
 H    6.398219    2.346590    8.932486
 H    6.391369    1.123709    7.981822
 O    6.127592    4.379510    6.595724
 H    7.037622    4.099682    6.313537
 H    6.130455    5.388915    6.527027
 O    7.791736    7.255391    18.450747
 H    7.229524    6.447294    18.478490
 H    7.376646    7.956955    17.975415
 O    7.600652    1.128207    18.436743
 H    8.280848    0.442899    18.183092
 H    7.773845    2.017073    17.952428
 O    7.085469    9.199261    9.742848
 H    6.955933    10.125035    9.441373
 H    6.896634    9.245575    10.731295
 O    2.856251    6.793782    6.211020
 H    3.043144    6.774663    5.266961
 H    2.388712    5.963192    6.457273
 O    3.991308    5.737244    18.861609
 H    4.571719    6.504854    18.745088
 H    3.343726    5.764542    18.063665
 O    6.435127    6.412839    13.167404
 H    7.344441    6.245883    12.953386
 H    5.816172    5.971780    12.512138
 O    6.992432    0.317861    6.612898
 H    6.304466    0.043554    5.979299
 H    7.756566    9.952455    6.364531
 O    2.870667    9.563232    15.336914
 H    2.748696    8.776298    14.741098
 H    3.318576    10.170940    14.738720
 O    10.150186    7.537264    16.691834
 H    9.566912    6.933645    17.157126
 H    9.963191    7.323686    15.701802
 O    0.210408    9.541761    20.696353
 H    0.097843    0.065944    21.298774
 H    9.623962    8.974335    20.727531
 O    4.696553    5.795418    15.383417
 H    5.510273    5.778037    14.856298
 H    4.876903    6.615988    15.939864
 O    3.080461    9.071155    7.219019
 H    2.152438    9.449031    7.142395
 H    2.952356    8.146710    6.887423
 O    4.917185    4.683978    12.049489
 H    5.618442    3.966158    12.188997
 H    4.757999    4.664757    11.073196
 O    9.307736    9.045596    6.473918
 H    8.960839    8.149777    6.308253
 H    9.826906    9.215108    5.630000
 O    2.238216    4.349145    6.663364
 H    2.125856    4.221142    7.663437
 H    1.482772    4.231161    6.082609
 O    9.761473    9.864019    18.095107
 H    10.044573    9.730699    19.102313
 H    9.773128    8.962680    17.676846
 O    9.890294    5.107860    21.239325
 H    9.352619    5.981595    21.134165
 H    10.168691    5.072690    22.141372
 O    3.757079    1.295573    21.163494
 H    4.538798    1.420815    21.733416
 H    3.230446    2.119926    21.099024
