274
traj_5000
Cu    9.477044    0.277886    25.998455
Cu    1.646559    2.667313    26.094367
Cu    9.371125    0.385748    3.338420
Cu    1.723852    2.578979    3.066009
Cu    1.604437    0.029649    26.117090
Cu    9.367035    2.757284    25.965164
Cu    1.754319    0.122687    3.124666
Cu    9.331660    2.876699    3.235374
Cu    2.917901    1.385032    24.418684
Cu    0.082200    4.259175    24.227917
Cu    3.044268    1.260402    1.308153
Cu    0.569267    3.959205    1.233379
Cu    0.287598    1.469379    24.197268
Ag    2.646457    3.798281    23.872805
Cu    0.363460    1.497495    1.395082
Cu    3.025456    3.876596    1.275390
Cu    4.162150    10.038234    25.830676
Cu    6.664040    2.588589    26.058169
Cu    4.254778    10.220833    3.119910
Cu    6.898065    2.744708    3.234581
Cu    6.746343    0.022595    26.003740
Cu    4.294242    2.479398    25.942969
Cu    6.858090    0.119415    3.113568
Cu    4.325834    2.479602    3.261003
Cu    7.781104    1.405173    24.329113
Cu    5.417542    3.964215    24.350779
Cu    8.052241    1.491258    1.450568
Cu    5.441057    4.005213    1.480425
Cu    5.292504    1.324608    24.251961
Cu    7.837233    3.957774    24.347873
Cu    5.610774    1.299867    1.481746
Cu    8.254675    4.008689    1.453738
Cu    9.209689    5.307840    25.963578
Cu    1.692771    7.795724    25.879556
Cu    9.576420    5.426744    3.241979
Cu    1.514875    7.915139    3.325737
Cu    1.727123    5.228502    25.922360
Cu    9.338408    7.729166    25.931343
Cu    1.720171    5.139248    3.146860
Cu    9.329820    7.920046    3.192042
Cu    2.948368    6.272363    24.091315
Cu    0.367345    9.065532    24.325150
Cu    2.922297    6.465288    1.333783
Cu    0.316225    9.072587    1.330348
Cu    0.595849    6.587157    23.989591
Cu    2.884060    8.952763    24.016277
Cu    0.411716    6.491052    1.225452
Cu    2.835803    8.944072    1.405386
Cu    4.249257    5.221550    26.057905
Cu    6.747774    7.739697    26.028576
Ag    4.270216    5.224413    3.588372
Cu    6.735403    7.637151    3.102207
Cu    6.689907    5.166341    26.148004
Cu    4.183415    7.605048    25.881934
Cu    6.939268    5.137612    3.197062
Cu    4.226458    7.722725    3.145275
Cu    7.994476    6.604128    24.204402
Cu    5.709230    8.829667    24.137554
Cu    8.139554    6.517838    1.450568
Cu    5.513545    9.001633    1.414370
Cu    5.487576    6.387586    24.205194
Cu    8.184232    9.275531    24.243770
Cu    5.455269    6.454348    1.454795
Cu    8.012470    9.146710    1.360733
 O    6.124934    6.499844    6.933661
 H    5.777117    6.847457    6.088950
 H    5.539309    6.913503    7.634108
 O    8.757179    5.893772    6.330711
 H    8.106530    5.758305    7.044898
 H    8.292299    5.624474    5.454029
 O    1.317145    1.524077    16.272253
 H    0.907576    1.116961    17.097940
 H    1.864021    0.833964    15.704708
 O    5.108269    9.957670    5.601992
 H    4.407830    9.572126    6.209170
 H    4.791533    0.662100    5.524576
 O    1.111031    0.401288    6.538124
 H    1.360903    1.371332    6.715416
 H    0.854105    0.334628    5.599614
 O    7.245576    1.823024    11.831243
 H    7.084345    2.045700    12.780321
 H    8.185459    2.231059    11.764660
 O    1.256722    5.952661    17.274704
 H    1.144259    5.381248    16.480723
 H    0.805337    6.800938    17.063592
 O    7.572229    1.110213    21.176176
 H    7.558018    1.164093    20.167384
 H    7.376442    2.021265    21.458892
 O    7.128819    3.965749    20.847751
 H    7.855431    4.715467    20.906936
 H    6.747365    4.153562    19.894181
 O    2.667416    7.499946    13.872343
 H    3.506798    7.185459    14.397612
 H    3.081892    7.576626    12.973202
 O    8.311213    3.463857    17.400472
 H    8.418564    3.550045    16.442939
 H    9.104792    3.754114    17.840927
 O    0.162662    1.533994    21.923390
 H    9.441567    1.583682    21.615310
 H    0.599325    2.362641    21.442774
 O    6.241691    4.860340    18.498571
 H    5.291788    5.167364    18.384692
 H    6.576933    4.254165    17.777778
 O    8.254061    3.367241    9.037117
 H    7.967792    4.252938    9.356823
 H    8.531129    3.439831    8.064259
 O    8.770061    4.587873    14.630654
 H    9.084855    3.696451    14.170119
 H    9.510681    5.275328    14.565128
 O    9.770368    3.355688    11.133438
 H    9.676308    3.295572    10.144198
 H    0.416522    3.005929    11.530032
 O    5.547488    8.860645    16.630535
 H    4.600755    9.158365    16.417574
 H    6.206930    9.529595    16.291013
 O    4.205806    4.492791    8.763385
 H    4.033329    5.465697    8.771576
 H    4.718023    4.218177    7.984200
 O    8.433286    2.666291    6.299269
 H    8.342805    1.670279    6.251445
 H    8.667107    3.002657    5.382161
 O    4.783967    0.043349    13.272827
 H    5.185971    0.507208    12.433665
 H    5.250688    9.391879    13.258295
 O    3.543297    7.621100    11.270833
 H    4.247417    7.532663    10.613717
 H    3.178611    8.595744    11.231464
 O    2.663530    9.358856    21.710693
 H    3.015744    10.216846    21.703559
 H    1.790921    9.375827    21.240117
 O    8.404250    7.913503    20.579303
 H    8.087309    7.570082    19.682540
 H    7.598914    8.159695    21.099024
 O    3.881401    3.941927    12.971088
 H    4.537776    3.803802    12.273283
 H    4.358653    3.991513    13.829803
 O    9.326855    5.882628    11.880124
 H    9.458948    4.942949    11.664520
 H    10.046413    6.248030    11.311258
 O    4.822000    3.782639    15.640767
 H    4.913197    4.769143    15.657413
 H    4.277066    3.432470    16.445845
 O    2.823228    5.485634    20.806797
 H    2.370616    6.262343    21.320704
 H    3.172885    5.896328    19.962349
 O    0.148553    4.115018    18.865572
 H    0.660055    4.868723    18.403451
 H    9.827622    4.566198    19.522687
 O    6.650851    8.211019    12.682824
 H    7.433082    8.712705    12.981921
 H    6.891420    7.303647    12.922736
 O    3.626520    2.613740    17.523070
 H    2.756057    2.140271    17.255416
 H    4.305182    2.011041    17.843569
 O    0.687455    4.958796    8.272992
 H    1.095389    5.626314    8.883605
 H    0.013087    5.432265    7.739532
 O    8.693178    9.521416    13.783829
 H    9.028931    0.145486    13.465708
 H    9.437375    8.840913    13.786735
 O    10.208564    9.156627    9.361050
 H    0.236786    9.430628    8.425712
 H    9.203248    9.247109    9.521960
 O    10.131680    7.316018    13.827161
 H    0.911256    7.201511    13.705356
 H    9.709024    6.655350    13.172952
 O    4.750637    7.739799    8.864581
 H    4.031590    8.280541    8.363356
 H    5.433492    8.440341    9.028926
 O    4.210202    1.856660    9.732544
 H    5.073099    1.719558    9.275707
 H    3.894181    2.738881    9.663582
 O    5.508433    5.509353    22.047574
 H    4.640526    5.411204    21.562466
 H    6.092626    4.829259    21.586246
 O    7.728757    0.348839    16.168150
 H    7.151720    0.975973    15.650015
 H    8.154276    10.113380    15.391608
 O    5.065636    0.713935    18.882218
 H    4.738573    1.048768    19.813329
 H    6.048459    0.749616    18.901242
 O    2.549636    10.208360    10.971207
 H    1.715979    0.003987    10.450694
 H    3.087925    0.717922    10.540264
 O    1.848379    3.254370    20.547861
 H    1.997546    4.218074    20.677329
 H    1.390859    3.078212    19.673293
 O    7.887534    6.097329    9.459340
 H    7.103668    6.698597    9.608625
 H    8.279110    6.221652    10.350554
 O    1.251917    6.789385    10.105887
 H    0.795624    7.667925    9.881035
 H    2.109906    6.969224    10.614774
 O    1.801451    2.340353    12.742009
 H    2.195276    1.544218    12.273283
 H    2.567732    2.988957    12.769224
 O    6.496777    2.058071    14.364585
 H    5.755953    1.380840    14.174875
 H    6.015334    2.746242    14.893289
 O    1.502811    4.567732    14.784430
 H    2.307739    5.003372    14.398669
 H    1.712197    3.625293    15.054463
 O    4.682137    8.349143    20.040559
 H    4.807993    9.233306    19.545675
 H    3.946528    8.627949    20.692125
 O    6.280235    8.826088    22.109930
 H    5.682341    8.591961    21.323875
 H    6.553315    9.772413    21.985482
 O    4.107145    2.371740    5.407262
 H    3.204375    2.646048    5.647967
 H    4.605151    3.051527    5.857757
 O    9.767505    2.048256    13.806816
 H    0.465187    2.279214    13.364512
 H    9.984456    1.680809    14.686933
 O    6.704016    1.219814    8.859561
 H    7.278599    1.980472    9.080713
 H    6.864838    1.033739    7.930035
 O    5.974234    3.886309    6.720171
 H    6.824453    3.349043    6.551335
 H    6.114608    4.858193    6.633243
 O    7.459153    7.179632    18.008707
 H    6.962783    6.329923    17.944237
 H    6.736937    7.843163    17.716744
 O    7.926487    1.194969    18.758827
 H    8.736936    0.607197    18.634644
 H    8.029135    1.959819    18.172523
 O    7.311418    9.033838    9.995971
 H    7.191491    9.982411    9.728580
 H    7.091910    8.976584    10.934745
 O    2.772210    6.483691    6.415790
 H    2.916265    5.967588    5.586932
 H    1.979654    6.076677    6.809742
 O    3.875472    6.366218    18.453917
 H    4.042223    7.342907    18.714174
 H    3.097842    6.395356    17.733654
 O    6.589508    5.602186    13.477862
 H    7.251097    4.986298    13.794662
 H    6.179121    5.120743    12.706868
 O    7.669356    0.177180    6.622674
 H    6.829156    10.213369    6.104539
 H    8.268784    9.581941    6.530462
 O    2.890194    9.861361    15.318947
 H    2.550965    9.028113    14.923410
 H    3.532869    10.150799    14.501186
 O    9.573558    8.016560    16.592752
 H    8.763007    7.663426    17.007049
 H    9.433899    7.745320    15.602455
 O    0.331254    9.523665    20.509285
 H    0.173704    0.125038    21.059655
 H    9.742150    8.938347    20.580096
 O    4.770778    6.598505    15.228055
 H    5.553725    6.339738    14.658397
 H    5.066454    7.391573    15.626763
 O    3.122890    8.925567    7.315459
 H    2.294345    9.470399    7.168289
 H    2.905428    8.050708    6.855188
 O    5.705550    4.072077    11.186811
 H    6.318881    3.304262    11.265020
 H    5.369592    4.203863    10.258606
 O    9.638888    8.470194    6.652531
 H    9.081890    7.631426    6.631658
 H    9.983536    8.647477    5.766337
 O    1.611696    3.193742    6.328069
 H    1.478171    3.866577    7.051503
 H    0.847050    3.209487    5.718249
 O    10.128818    0.109702    18.164068
 H    0.178100    9.869540    18.955671
 H    9.963395    9.674570    17.462300
 O    9.396275    5.359266    21.102723
 H    9.092728    6.307226    20.971406
 H    9.722929    5.290766    22.029342
 O    4.011858    1.707494    21.100873
 H    4.511909    2.023208    21.849673
 H    3.197934    2.263776    21.031384
