 # Version information for this restart file 
 # current date 2026-02-08 12:53:42.350
 # current working dir /home/shaofl/projects/03_CuAg_SAA/explicit/1K/co2/adsorption
 # Program compiled at                              Wed Jun 16 17:08:34 CST 2021
 # Program compiled on                                                       mgr
 # Program compiled for                                       Linux-x86-64-intel
 # Source code revision number                                       git:e635599
 &GLOBAL
   PRINT_LEVEL  LOW
   PROJECT_NAME slowgrowth
   RUN_TYPE  MD
 &END GLOBAL
 &MOTION
   &MD
     ENSEMBLE  NVT
     STEPS  8000
     TIMESTEP     9.9999999999999989E-01
     STEP_START_VAL  4000
     TIME_START_VAL     3.9999999999997026E+03
     ECONS_START_VAL    -4.3014740091867043E+03
     TEMPERATURE     3.0014999999999998E+02
     &THERMOSTAT
       TYPE  NOSE
       REGION  GLOBAL
       &NOSE
         LENGTH  3
         TIMECON     2.2237606346543473E+01
         &COORD
              -1.3247828663990047E-01   -8.2283653713432425E+00    2.2157762652974636E+01
         &END COORD
         &VELOCITY
              -3.3023940284519048E-05    1.8279995388027542E-03   -4.6668583131848518E-04
         &END VELOCITY
         &MASS
               6.4750332819943212E+05    8.0335400521021347E+02    8.0335400521021347E+02
         &END MASS
         &FORCE
               7.5877794050038266E-08   -3.0418101468038190E-07    2.1583933098588234E-06
         &END FORCE
       &END NOSE
     &END THERMOSTAT
     &AVERAGES  T
       &RESTART_AVERAGES
         ITIMES_START  1
         AVECPU     2.2643226605173716E+01
         AVEHUGONIOT     0.0000000000000000E+00
         AVETEMP_BARO     0.0000000000000000E+00
         AVEPOT    -4.3018485131289417E+03
         AVEKIN     3.8231266676676279E-01
         AVETEMP     2.9956488272235782E+02
         AVEKIN_QM     0.0000000000000000E+00
         AVETEMP_QM     0.0000000000000000E+00
         AVEVOL     1.8637835790266090E+04
         AVECELL_A     1.9320371010009655E+01
         AVECELL_B     1.9320371010009655E+01
         AVECELL_C     4.9930343883104662E+01
         AVEALPHA     9.0000000000000000E+01
         AVEBETA     9.0000000000000000E+01
         AVEGAMMA     9.0000000000000000E+01
         AVE_ECONS    -3.4583209438373849E+01
         AVE_PRESS     0.0000000000000000E+00
         AVE_PXX     0.0000000000000000E+00
       &END RESTART_AVERAGES
     &END AVERAGES
     &PRINT
       &ENERGY  SILENT
       &END ENERGY
     &END PRINT
   &END MD
   &CONSTRAINT
     &COLLECTIVE
       COLVAR  1
       INTERMOLECULAR  T
       TARGET     6.8786031237012724E+00
       TARGET_GROWTH    -2.2855144621117898E-05
     &END COLLECTIVE
     &LAGRANGE_MULTIPLIERS  SILENT
       COMMON_ITERATION_LEVELS  1
       FILENAME constraint_force.dat
     &END LAGRANGE_MULTIPLIERS
   &END CONSTRAINT
   &PRINT
     &TRAJECTORY  SILENT
       &EACH
         MD  5
       &END EACH
     &END TRAJECTORY
     &VELOCITIES  SILENT
       &EACH
         MD  5
       &END EACH
     &END VELOCITIES
     &RESTART  SILENT
       &EACH
         MD  10
       &END EACH
     &END RESTART
   &END PRINT
 &END MOTION
 &FORCE_EVAL
   METHOD  QS
   &DFT
     BASIS_SET_FILE_NAME BASIS_MOLOPT
     POTENTIAL_FILE_NAME GTH_POTENTIALS
     WFN_RESTART_FILE_NAME ./1-RESTART.wfn
     UKS  T
     CHARGE  0
     &SCF
       MAX_SCF  60
       EPS_SCF     1.0000000000000001E-05
       SCF_GUESS  ATOMIC
       &OT  T
         MINIMIZER  BROYDEN
         BROYDEN_BETA     9.0000000000000002E-01
         BROYDEN_SIGMA     1.0000000000000001E-01
         LINESEARCH  2PNT
         PRECONDITIONER  FULL_ALL
       &END OT
       &OUTER_SCF  T
         EPS_SCF     1.0000000000000001E-05
         MAX_SCF  50
       &END OUTER_SCF
       &PRINT
         &RESTART_HISTORY  SILENT
           ADD_LAST  NUMERIC
           FILENAME = MD_RESTART_HISTORY.wfn
           BACKUP_COPIES  5
           &EACH
           &END EACH
         &END RESTART_HISTORY
       &END PRINT
     &END SCF
     &QS
       EPS_DEFAULT     9.9999999999999998E-13
       EPS_PGF_ORB     9.9999999999999995E-07
       EXTRAPOLATION  ASPC
       EXTRAPOLATION_ORDER  2
     &END QS
     &MGRID
       NGRIDS  5
       CUTOFF     4.5000000000000000E+02
       REL_CUTOFF     6.0000000000000000E+01
     &END MGRID
     &XC
       DENSITY_CUTOFF     1.0000000000000000E-10
       GRADIENT_CUTOFF     1.0000000000000000E-10
       TAU_CUTOFF     1.0000000000000000E-10
       &XC_GRID
         XC_SMOOTH_RHO  NN10
         XC_DERIV  NN10_SMOOTH
       &END XC_GRID
       &XC_FUNCTIONAL  NO_SHORTCUT
         &PBE  T
         &END PBE
       &END XC_FUNCTIONAL
       &VDW_POTENTIAL
         POTENTIAL_TYPE  PAIR_POTENTIAL
         &PAIR_POTENTIAL
           R_CUTOFF     1.0000000000000002E+01
           TYPE  DFTD3
           PARAMETER_FILE_NAME dftd3.dat
           REFERENCE_FUNCTIONAL PBE
         &END PAIR_POTENTIAL
       &END VDW_POTENTIAL
     &END XC
     &PRINT
       &MULLIKEN  SILENT
         FILENAME =CHARGE.mulliken
         &EACH
           MD  5
         &END EACH
       &END MULLIKEN
     &END PRINT
   &END DFT
   &SUBSYS
     &CELL
       A     1.0223900000000002E+01    0.0000000000000000E+00    0.0000000000000000E+00
       B     0.0000000000000000E+00    1.0223900000000002E+01    0.0000000000000000E+00
       C     0.0000000000000000E+00    0.0000000000000000E+00    2.6422000000000001E+01
       PERIODIC  XYZ
       MULTIPLE_UNIT_CELL  1 1 1
     &END CELL
     &COORD
Cu    1.0007076672622803E+01    5.9810748008027736E-01    2.6343517791439499E+01
Cu    2.3792560351301719E+00    3.0541587887442270E+00    2.6335776912148443E+01
Cu    1.0100195396746813E+01    6.2081999791699949E-01    3.4874309841832662E+00
Cu    2.4213398563982600E+00    3.2286348316356630E+00    3.3710788073964002E+00
Cu    2.3716548356917966E+00    4.6739369033120282E-01    2.6400708969949950E+01
Cu    9.9287216723395026E+00    3.1168462009236184E+00    2.6397246948025362E+01
Cu    2.5333236473398970E+00    5.5215378493871792E-01    3.4604780268095254E+00
Cu    1.0076105194707070E+01    3.1578508039438886E+00    3.5089524072470959E+00
Cu    3.6370573948493736E+00    1.7843120440260256E+00    2.4674625052111544E+01
Cu    9.1339494864065596E-01    4.2875908388606909E+00    2.4615088084819060E+01
Cu    3.7411140054775807E+00    1.8812377210929154E+00    1.7020107504816584E+00
Cu    1.0709378884031524E+00    4.4278515810682162E+00    1.6646039139698028E+00
Cu    1.1643096850618164E+00    1.7816337627390457E+00    2.4598066749220447E+01
Ag    3.7390648462331559E+00    4.4375616796723465E+00    2.4254738693901182E+01
Cu    1.2521891310102202E+00    1.9308262317086009E+00    1.7214035906282572E+00
Cu    3.6446357398444063E+00    4.4395259515401904E+00    1.6032066179456201E+00
Cu    5.0287192671991354E+00    5.9400402732780366E-01    2.6386473491074064E+01
Cu    7.4525995440626023E+00    3.0013208079249929E+00    2.6325490231514785E+01
Cu    5.0546355800738398E+00    6.6544385267811024E-01    3.4685084935731978E+00
Cu    7.4460244921946463E+00    3.0139451587926458E+00    3.6049271002009466E+00
Cu    7.5597803963407761E+00    4.8544974314556122E-01    2.6368086287697380E+01
Cu    5.0147585065076550E+00    3.2076918122343772E+00    2.6302720053234310E+01
Cu    7.6421432712171997E+00    4.6629399020592444E-01    3.7138193407264075E+00
Cu    5.0425753117723016E+00    3.1254639531429724E+00    3.4643755018378362E+00
Cu    8.8753716477943687E+00    1.7495739195693039E+00    2.4640602481264271E+01
Cu    6.3921671137901983E+00    4.3557855561638652E+00    2.4572052619649142E+01
Cu    8.8165474965870398E+00    1.8856246271101975E+00    1.6900611208991885E+00
Cu    6.1644215803718030E+00    4.3426435165032293E+00    1.7408088850467385E+00
Cu    6.3202580423780130E+00    1.7846858892360280E+00    2.4556382653437765E+01
Cu    8.7260845607109978E+00    4.3123370867761457E+00    2.4591162184560950E+01
Cu    6.2248394325354468E+00    1.8248121173013543E+00    1.7387005122551529E+00
Cu    8.6942016741855266E+00    4.2867224223892100E+00    1.7546344086729182E+00
Cu    9.9054338724761735E+00    5.7230233179653851E+00    2.6285817401003115E+01
Cu    2.3457796033768856E+00    8.2513793856884625E+00    2.6388977317677526E+01
Cu    1.0102762713814650E+01    5.6509443294653634E+00    3.4861021865512680E+00
Cu    2.2813921159437092E+00    8.2773978885592712E+00    3.6877916133531774E+00
Cu    2.3233637213410598E+00    5.5660746868331010E+00    2.6327414791694910E+01
Cu    1.0117940036312801E+01    8.3079097594376456E+00    2.6381976558381453E+01
Cu    2.2943383972831053E+00    5.6139506769033760E+00    3.4921447013873763E+00
Cu    9.8938978457916189E+00    8.2275765752343357E+00    3.5206185204264244E+00
Cu    3.4447445007204802E+00    7.0545036479844185E+00    2.4610840258401797E+01
Cu    1.0907902842831767E+00    9.5025765503048198E+00    2.4453919770632442E+01
Cu    3.5988814860979570E+00    7.0415662256256280E+00    1.8280377002393160E+00
Cu    1.0528415583721822E+00    9.5650903276574439E+00    1.7999621328638111E+00
Cu    1.1510766372794741E+00    6.8426057805181300E+00    2.4571506312300063E+01
Cu    3.7008174403423584E+00    9.5714597834513508E+00    2.4711999907407765E+01
Cu    1.1132652655147632E+00    6.9948268223155514E+00    1.7744646117632155E+00
Cu    3.7299895976227506E+00    9.5426183647800666E+00    1.7731884784542313E+00
Cu    4.8232925750303384E+00    5.7413599720026447E+00    2.6340393003180697E+01
Cu    7.4497778335839380E+00    8.1876099215375504E+00    2.6438814966875551E+01
Ag    5.0271673794655056E+00    5.7887412597863221E+00    3.8658939644235693E+00
Cu    7.4803158511198298E+00    8.1060877159169173E+00    3.5635251769022394E+00
Cu    7.4092163689701644E+00    5.5500862295731084E+00    2.6375762003783713E+01
Cu    4.9338122934884581E+00    8.1890523386502974E+00    2.6395426066650046E+01
Cu    7.5114398132520037E+00    5.5530149379372622E+00    3.5350063729637093E+00
Cu    4.9897520350649831E+00    8.4391636536591115E+00    3.7068924343098342E+00
Cu    8.7548452585881336E+00    6.9577629516517989E+00    2.4617967937515576E+01
Cu    6.2239178391835619E+00    9.3563152122692941E+00    2.4543878530586646E+01
Cu    8.6869854865197542E+00    6.6987413249110306E+00    1.7425390624979324E+00
Cu    6.2645267061106837E+00    9.4492851713781274E+00    1.8313146512300906E+00
Cu    6.1564623584266247E+00    6.8795716387343013E+00    2.4667159651951192E+01
Cu    8.7848561930765214E+00    9.5505147668582833E+00    2.4658748765916410E+01
Cu    6.1849933189354269E+00    6.7878319292785143E+00    1.8447364451983095E+00
Cu    8.7176587449897713E+00    9.5056052562286588E+00    1.7780670987944234E+00
O    7.5321941105140073E+00    9.5044794565920332E-01    6.7825712455350500E+00
H    7.3582452367058124E+00    1.0318290768900832E+01    6.2966750902341202E+00
H    7.1922829866858615E+00    1.6880165742856110E+00    6.2363242600260458E+00
O    8.7046733947832369E+00    6.1302805325398140E+00    6.6868946140456904E+00
H    9.3083121542365621E+00    6.8817319198241655E+00    6.8447781857884609E+00
H    8.5852941824172948E+00    6.0279844795513551E+00    5.7373798373816598E+00
O    2.1764791560879915E+00    1.0566129215450040E+01    1.8140173457023177E+01
H    1.4127034197217561E+00    1.1024056734017890E+01    1.8613751294887560E+01
H    2.0881185947125052E+00    9.6146771727962612E+00    1.8346989358938966E+01
O    3.5404306697400036E+00    3.1296013459358738E+00    9.1993187983035600E+00
H    3.7696302746573149E+00    3.1481081554524621E+00    8.2443891447152495E+00
H    3.6714345226655003E+00    4.0608188547179829E+00    9.5556316793445788E+00
O    3.2329889241060736E+00    2.7476774766489895E+00    6.4273609638995488E+00
H    3.6558479627098421E+00    3.2209425622592671E+00    5.6231598816661945E+00
H    3.5741474771158770E+00    1.7546105647975900E+00    6.4352735598067632E+00
O    3.8309389309945732E+00    1.8481532619734506E+00    1.2959646980338379E+01
H    3.4705739552759787E+00    1.0191364631163773E+00    1.2540885755404824E+01
H    4.4219363469333972E+00    1.5330363239100662E+00    1.3800262210135001E+01
O    2.7161105060436315E+00    4.8669178589080317E+00    1.8141035598771200E+01
H    2.4917120938927630E+00    4.6223052891291152E+00    1.7225701925194091E+01
H    2.4749676168322132E+00    5.8067630782251376E+00    1.8215756187072660E+01
O    8.1232522818975426E+00    1.0622453102800067E+01    2.1887420086080542E+01
H    7.3788436478408066E+00    1.0272673524106150E+01    2.1285880886279887E+01
H    7.7305590667986346E+00    1.0472974198243683E+01    2.2799033969018463E+01
O    8.2829402761964470E+00    4.8115518844937633E+00    1.8924417752343025E+01
H    8.9464247840877800E+00    5.5206256180204516E+00    1.8715984345676922E+01
H    7.4299807366781536E+00    5.1432090003380377E+00    1.8607172211139449E+01
O    3.2806768208742580E+00    6.2956052230344106E+00    1.2827267955786057E+01
H    3.0609814404243569E+00    5.3460845655578675E+00    1.3114243402601389E+01
H    2.8377828588536289E+00    6.3766063434742399E+00    1.1986905060611610E+01
O    9.1802833748529142E+00    3.3701592018291815E+00    1.6854033819987933E+01
H    8.5071595469917298E+00    2.7766127409000001E+00    1.6511446089205737E+01
H    8.6886332597042664E+00    3.8806658027802214E+00    1.7640517563233793E+01
O    5.2709847573116964E-01    9.7733586722978423E+00    2.1867779944209243E+01
H    9.7822948397534901E+00    1.0013452574981347E+01    2.1855145327400830E+01
H    9.2988500679872765E-01    3.3462102785702896E-01    2.1518737302150022E+01
O    5.7833624970938660E+00    5.6439136778234555E+00    1.8202453560237526E+01
H    5.0848108913738095E+00    5.4871805830567544E+00    1.8939000172367841E+01
H    5.4328945442842587E+00    5.4394424015279919E+00    1.7254927190396160E+01
O    5.6880989530954276E+00    2.5067650881419441E+00    1.0887109375679289E+01
H    4.8819044792489761E+00    2.2741274027916720E+00    1.1427894089405136E+01
H    5.3444221462240886E+00    3.1130270616123501E+00    1.0227977291700054E+01
O    4.6845224220741608E+00    5.2711578165660695E+00    1.5686039878666501E+01
H    5.4307237146012239E+00    5.3733115642180138E+00    1.4944575331947579E+01
H    3.9859544978773975E+00    5.9919236929693094E+00    1.5479795690936225E+01
O    7.5271385869325842E+00    2.7836477322897499E+00    1.2688472783092077E+01
H    6.8921593880723897E+00    2.5370191334438803E+00    1.1932815208330069E+01
H    7.8528017475986349E+00    1.9975452010782382E+00    1.3130764815587087E+01
O    5.9769824635838580E+00    8.3460076741164499E+00    1.8393626068865345E+01
H    5.8205165208732641E+00    8.7040990497280877E+00    1.7415884487378229E+01
H    5.7961139928025087E+00    7.3644369838807373E+00    1.8327110861547141E+01
O    4.8234108959229482E+00    5.4340346675109119E+00    9.6715472579865587E+00
H    5.4527689015408898E+00    5.4517444338390133E+00    1.0442785686438880E+01
H    4.8201549812914646E+00    6.4200196577229933E+00    9.3758400109893003E+00
C    6.1672634689801304E+00    4.6858742140273622E+00    7.1420907207316064E+00
O    5.6477246294228918E+00    9.1640269922858426E+00    1.6014309956681085E+01
H    6.2822933744896767E+00    9.0943398920647702E+00    1.5268106974158696E+01
H    4.9163286025628690E+00    8.6177864342292079E+00    1.5810370983950232E+01
O    1.7026528299927182E+00    6.6074736564615577E+00    1.0207244155719561E+01
H    2.3149788283143296E+00    6.4937706798023296E+00    9.4600512351439914E+00
H    1.3398916294448202E+00    7.5158744552051928E+00    1.0167134742093642E+01
O    4.5027596170712263E+00    9.9886406907688197E-01    2.1816429324294287E+01
H    4.5274521709325448E+00    8.4370264175028831E-01    2.2786708600891870E+01
H    3.4875252193851884E+00    1.3540029538626452E+00    2.1670817059747787E+01
O    9.8162303762428902E+00    5.6690385446773037E+00    2.1466101747954980E+01
H    1.0179700644840082E+01    5.4515190156226581E+00    2.2360758989480352E+01
H    8.8709291088150888E+00    5.8989889588147157E+00    2.1587211763644387E+01
O    1.5522189999253668E+00    9.5490253449994844E-01    1.5670343381332998E+01
H    1.9094093224716191E+00    1.8750644165430415E+00    1.5630528508028624E+01
H    1.9171993495792381E+00    5.6622439588673057E-01    1.6591991450415776E+01
O    1.0324689344177566E+01    4.0814124473001758E+00    1.2346386530221816E+01
H    9.5128568988076161E+00    3.8069383843105138E+00    1.2769257892011961E+01
H    1.0136510949771976E+01    4.2395859402387135E+00    1.1388329258320121E+01
O    3.4583586000528919E+00    2.8666295106733606E+00    1.6142660059626781E+01
H    3.9006726104109277E+00    3.7799174376811284E+00    1.6002676287799439E+01
H    3.5847917015022550E+00    2.6986721055823817E+00    1.7115099164284921E+01
O    5.0805077593659131E+00    5.5359790819830819E+00    2.0874754590393884E+01
H    4.4104006588245630E+00    5.9726585584423164E+00    2.1411203315645768E+01
H    5.9464957493859751E+00    5.8393243907153236E+00    2.1332479922990263E+01
O    1.5609811615976403E+00    3.9767057651644389E+00    2.0333626958207088E+01
H    9.3009270349844653E-01    4.6911678978044860E+00    2.0661766561105161E+01
H    2.1625213103029797E+00    4.3731682351467951E+00    1.9607057756439957E+01
O    5.8271124087515149E+00   -8.5238573788949201E-01    1.1925811533055814E+01
H    6.3298343518842195E+00   -4.6283430716537088E-01    1.2668997724468865E+01
H    6.0900293689256175E+00    8.3731873237645935E+00    1.2000965018416679E+01
O    4.7191225809424235E+00    2.2660227645994548E+00    1.8504154973602922E+01
H    4.3343185491081915E+00    1.4029937091142213E+00    1.8784216258085799E+01
H    5.2603811307123509E+00    2.5588068088513674E+00    1.9284074896236753E+01
O    2.0098601258473554E+00    8.3777242344047771E+00    5.9230859169593790E+00
H    1.0427692331329526E+00    8.4835275144493050E+00    6.2759206392264675E+00
H    2.2296111547176727E+00    7.5801450208464303E+00    6.4508072960925560E+00
O    7.5232129632359435E+00   -1.0267166331872337E+00    1.4046185190661573E+01
H    8.1050426747853557E+00   -1.6624912734412778E-01    1.4088980969733319E+01
H    8.1318897664991834E+00    8.4542601351113564E+00    1.4155910434231536E+01
O    8.9536930576471061E+00   -7.6975655707631563E-01    9.4495020578888766E+00
H    8.7459000134090559E+00    8.5794726944634458E+00    9.7613689225144409E+00
H    8.0802067048773267E+00   -2.7045377558933736E-01    9.4546541388656742E+00
O    8.2924897452258221E-03    7.8851688278033176E+00    1.2221426045631178E+01
H   -3.5337211974586358E-01    8.6986861075108504E+00    1.2481785524436395E+01
H    1.0924850282229961E+01    7.6165130177773221E+00    1.2907009743294944E+01
O    4.6841667151817843E+00    8.0517135069181229E+00    8.9788937645955560E+00
H    4.4811138998706914E+00    8.0773186855570955E+00    8.0238363069057907E+00
H    5.4775998469582943E+00   -1.6411494892532477E+00    9.1549255926104145E+00
O    9.0287177352100845E-01    2.4315703378418938E+00    9.1972017140858426E+00
H    1.8449725831117330E+00    2.7654168244507269E+00    9.0841712033034732E+00
H    3.9772612953828079E-01    3.2646767561522849E+00    9.3605475682321426E+00
O    5.6723414691102878E+00    8.8944462557871340E+00    2.0946888640293409E+01
H    5.6209659963197973E+00    8.7703333487176529E+00    1.9977119503411625E+01
H    5.1122840389682773E+00    9.7662752879893766E+00    2.1162734983763691E+01
O    9.6566426707763924E+00    8.7461889010840537E+00    1.6784368667036773E+01
H    2.4560720825033502E-01    9.2459628429582281E+00    1.6637790478501113E+01
H    9.1909616913539658E+00   -9.2943879918570693E-01    1.7422403894548768E+01
O    7.0402127058908137E+00    1.6056596946891928E+00    1.7108504268570869E+01
H    6.2827484588881406E+00    1.6407038722711487E+00    1.7704037746396939E+01
H    6.5671259022522737E+00    1.6010822202335706E+00    1.6242814739141039E+01
O   -3.1714683802061794E-01    8.8322509008299133E-01    1.1449098846298492E+01
H    9.8127403354002904E+00    3.3486767385117289E-01    1.0650868982750477E+01
H    8.1306002552999801E-02    1.6787403536422858E+00    1.1013302422476118E+01
O    2.0963374820525349E+00    1.8173832247498933E+00    2.1562128900947517E+01
H    1.7774593677397568E+00    1.8192723001148670E+00    2.2455459531057389E+01
H    1.9134816884880184E+00    2.7626931719020198E+00    2.1131396885393457E+01
O    8.4702875686517238E+00    6.7985454500999474E+00    1.0483862063628228E+01
H    7.4936541050698970E+00    6.7009714689285964E+00    1.0755960945629726E+01
H    9.0074283442979119E+00    6.9190376213366775E+00    1.1375397968582547E+01
O   -2.9091816899236372E-01    4.7187341249498109E+00    9.8438793618027152E+00
H   -1.1236520582015865E+00    5.0695186037261895E+00    9.5569804071017046E+00
H    3.9139656803131140E-01    5.4265035071862986E+00    9.9259727986818937E+00
O    9.3137242925453343E+00    1.1002301191876498E+00    1.4078946785647808E+01
H    9.6894632680965991E+00    9.6452144037321264E-01    1.3191882830966854E+01
H   -1.5157773103432803E-01    1.2494190104534491E+00    1.4709531521408810E+01
O    5.2502912213160693E+00    1.3054450010604390E+00    1.5033510910073602E+01
H    5.0596816714138741E+00    3.8405906377377647E-01    1.5336287008035987E+01
H    4.6425992856031897E+00    1.9744259063625651E+00    1.5553893362281086E+01
O    6.8976071231554856E+00    4.9254267316514628E+00    1.3815190340215150E+01
H    7.1151682723221885E+00    4.0178506170056085E+00    1.3358968006499147E+01
H    7.6868845154937109E+00    5.3433343986182562E+00    1.4235513159722395E+01
O    8.1745219035076921E+00    9.8832078249439146E+00    1.8695971446448951E+01
H    7.6809273468302273E+00    1.0415926848562771E+01    1.8078705063359269E+01
H    7.4314373175623043E+00    9.3542840729517867E+00    1.9125797746481801E+01
O    7.2503758856418079E+00    6.7634547939053977E+00    2.1858415106697723E+01
H    6.9231092695810892E+00    7.6752955925537076E+00    2.1616958088374918E+01
H    7.1558269751840058E+00    6.7548274562046586E+00    2.2879086935696034E+01
O    2.4803771792606364E+00    6.1559443758175405E+00    7.7794728905518902E+00
H    1.7576183005590902E+00    5.5826519566604551E+00    7.5004908308440177E+00
H    3.1647124903293942E+00    5.5683659523516793E+00    7.5549743651416970E+00
O    1.0782244496050421E+01    5.1331543661077426E+00    1.5498973415220574E+01
H    1.3458853480580695E+00    4.7644639840136049E+00    1.5084598134977053E+01
H    1.0158128505477947E+01    4.4679245069908120E+00    1.5887501307401214E+01
O    2.9860787762160723E+00   -6.0533506695536055E-01    1.2031559785534570E+01
H    2.6733014121153178E+00   -5.4268136974782299E-01    1.1085646159288769E+01
H    4.0134227977458510E+00   -8.0614062908011108E-01    1.2013694966869288E+01
O    6.4992687171973440E+00    8.3256030809298913E+00    6.6810216276034406E+00
H    7.1206663052215982E+00    7.6102156810382544E+00    6.8151814864343718E+00
H    6.5503686880083523E+00    8.4773582784505006E+00    5.6938739214306953E+00
O    1.0289442562407618E+01    6.3971732813256397E+00    1.7965308914612439E+01
H    1.0491090880190969E+01    5.9355619520644138E+00    1.7142764425562866E+01
H    1.0119044923354354E+01    7.2813743467407495E+00    1.7718252179936293E+01
O    3.8193942161690295E-02    1.9996926229570990E+00    1.8995276174232778E+01
H    5.6681941988728834E-01    2.7957594454906802E+00    1.9116627283231683E+01
H    9.9011679190974267E+00    2.0152496275971798E+00    1.8083309024270392E+01
O    6.4432996724167140E+00   -1.1122040878939118E-01    9.2173841668154033E+00
H    6.5549725496231952E+00    2.4184131217538662E-01    8.2931043495220766E+00
H    6.0165030834341922E+00    5.5249913790183447E-01    9.8725468677828765E+00
O    3.8333259649181879E+00    1.0241957867920890E+01    6.6155089566336676E+00
H    4.6327748707762799E+00    1.0202452365712286E+01    6.0051607946690719E+00
H    3.1524264262288382E+00    9.7038793373814460E+00    6.1637302275328292E+00
O    3.7076080521962105E+00    7.1989194815533519E+00    2.2480634384680954E+01
H    4.3665944551168412E+00    7.8659847698884429E+00    2.2162005551900844E+01
H    2.8437399272467627E+00    7.3024067784031264E+00    2.1999465727326452E+01
O    6.0236026672610690E+00    6.6472948526995710E+00    1.1930309160082292E+01
H    6.4623618172679347E+00    6.1109649932411196E+00    1.2678778912624740E+01
H    5.0099446182529945E+00    6.5361880473066662E+00    1.2146680965904821E+01
K    1.2602144000565491E-01    1.7112705652654017E+00    6.6489891701538095E+00
O    1.7342648660929261E+00   -1.5199928910941891E+00    1.4214592911042081E+01
H    1.4969295152826978E+00   -5.6769660857559645E-01    1.4581513487037260E+01
H    2.1478869563653529E+00   -1.3080840104996490E+00    1.3378771029331480E+01
O    8.7044202956013557E+00    6.6792900946935019E+00    1.4794713182161960E+01
H    8.7032469587411700E+00    7.0857218741102681E+00    1.5708776744813939E+01
H    9.6571132621828681E+00    6.3824875177422973E+00    1.4770708874207655E+01
O    1.4878995096536123E+00    7.5940144451174021E+00    2.0856791589052360E+01
H    1.1303669873301854E+00    8.5272006570640357E+00    2.1136710461291589E+01
H    6.9105955749839831E-01    7.0300616815160994E+00    2.0877963579780445E+01
O    3.4479717685448747E+00    7.6432946227223431E+00    1.6033396586303386E+01
H    2.8736874736257780E+00    8.0419316050064396E+00    1.5255790785841556E+01
H    2.7942607757211846E+00    7.5930450693110663E+00    1.6723557889668363E+01
O    2.0173456948389359E+00   -5.6214714257324838E-01    9.4162311408080388E+00
H    1.8596531166100965E+00    3.4811744202239153E-01    9.1696320580967150E+00
H    2.8556954639996937E+00   -7.3019845689988094E-01    8.8933060479623016E+00
O    2.4014277157760442E+00    3.8974187602275396E+00    1.3415611841721073E+01
H    2.8916714878810867E+00    3.0470257222153023E+00    1.3327459672410120E+01
H    1.6525002904084467E+00    3.7922292541133311E+00    1.2782313566218436E+01
O    9.9151752248359681E+00    8.8048664797343328E+00    7.1180982195571616E+00
H    9.6663801488910188E+00    9.1343020473155292E+00    8.0226464832640740E+00
H    9.2789418562891601E+00    9.2102186981779699E+00    6.4953551094973330E+00
O    9.3710826524888813E-01    4.7451480873389036E+00    6.5935896291123317E+00
H    4.8460709879381017E-02    5.1238064739978890E+00    6.7923730134999838E+00
H    1.0081130288012154E+00    4.7375815700783566E+00    5.5942939825403331E+00
O    2.6727930964183795E+00    7.6517756277135724E+00    1.8592815169064924E+01
H    3.5934649934375305E+00    7.8823780182674295E+00    1.8750441898172948E+01
H    2.1462531704262964E+00    7.7016112512116370E+00    1.9499081725059504E+01
K    8.6854829824601687E+00    2.8888821056572045E+00    2.0983310904428766E+01
O    6.0842805458305760E+00    2.9967608435382385E+00    2.0813022642626681E+01
H    5.7614169140323863E+00    3.9402738227197709E+00    2.1061883532141394E+01
H    5.6509986333137929E+00    2.2695384631283613E+00    2.1359536095351185E+01
O    5.2483684198893847E+00    5.3693406349476218E+00    6.7610373104619574E+00
O    7.0025018800620131E+00    3.9273246434735327E+00    7.4590621757661006E+00
     &END COORD
     &VELOCITY
           1.2069881527089196E-04    1.3170925467532741E-04    4.1775613043453701E-05
          -4.0340587418785978E-06    7.1681091599474513E-05    5.0810863923119691E-05
           3.0926948670070405E-05   -3.8742608680579520E-05   -9.9808347845768103E-05
          -1.9467261128675492E-04   -7.8854215849573310E-05    9.9612098756807359E-05
           8.6581112202462331E-05   -1.5411999439877817E-04   -7.2082048982597575E-06
           7.0247091098401760E-06    2.7238545927020203E-05   -2.2275212826272281E-04
          -2.9216756815223615E-05    3.7255216575979144E-05    1.9179394858154794E-04
           2.8209751653947472E-06    8.4181825730795140E-05    1.4275208614795133E-04
          -6.8658684832034010E-05   -1.5386122147688097E-05   -1.0521684383232918E-04
           2.3844425067777818E-05    1.3651891438386753E-04   -7.9628238324513462E-05
           7.6471473917609170E-05    8.5724497551205200E-05    1.6619330324681262E-05
          -3.1262273367761387E-06   -2.6051356420108137E-05   -2.3327873290423623E-05
           2.6461898508811915E-05   -1.4277200979158925E-04   -5.7759011815527208E-05
           6.3537280592296277E-05    4.7273620805980129E-05    1.1963460687948114E-04
           2.6237553671339336E-05   -5.5046715463169051E-05   -1.2662534469657779E-04
          -8.6325066501776627E-06   -5.9202364717480196E-05   -9.7527685271736549E-05
           1.1263690840215749E-04   -1.0957810021197451E-05    4.5038916399313263E-05
           3.6831342063965295E-05    1.2573188670242640E-05   -1.7356243370874134E-05
          -7.5037394403518410E-05    7.5656677493187343E-06    7.3883221834293187E-05
          -2.2249067842559319E-05   -3.4553946019303597E-05    4.8327519397119938E-06
          -1.1902981625667879E-04    1.0517367172457695E-05    3.2529334557226791E-05
           1.0247745389637938E-07   -4.6737257587008387E-05   -1.6665792803537962E-05
           1.7774341533097643E-04   -2.2454137831038848E-05   -6.5527919541413741E-05
           2.4451632472973896E-05    9.5024443537910071E-05   -8.7509551168811294E-05
          -1.8739600556077773E-05   -7.6673062793143338E-06   -1.1432674245082169E-04
          -3.2583549736387247E-06    3.4527656649073661E-05    5.1447157393700697E-05
          -5.4606362960492742E-05   -2.2251090692253489E-05    7.1406912430581664E-06
          -3.4684970124668065E-07   -1.0688563117699999E-04    5.8221965602429907E-05
          -1.1355640403374850E-04    4.8949238675045929E-05   -2.5893621202193991E-04
           5.4563420629560106E-05   -2.3159030513068221E-05    8.5625085925189674E-05
          -3.1232353698216503E-05   -4.6725290297236842E-05    1.4006828026678764E-05
           3.3537518141083615E-05    3.8794795416246203E-05   -1.4453600995024794E-04