 # Version information for this restart file 
 # current date 2026-02-09 11:27:05.495
 # current working dir /home/shaofl/projects/03_CuAg_SAA/explicit/1K/co2/adsorption
 # Program compiled at                              Wed Jun 16 17:08:34 CST 2021
 # Program compiled on                                                       mgr
 # Program compiled for                                       Linux-x86-64-intel
 # Source code revision number                                       git:e635599
 &GLOBAL
   PRINT_LEVEL  LOW
   PROJECT_NAME slowgrowth
   RUN_TYPE  MD
 &END GLOBAL
 &MOTION
   &MD
     ENSEMBLE  NVT
     STEPS  8000
     TIMESTEP     9.9999999999999989E-01
     STEP_START_VAL  7680
     TIME_START_VAL     7.6799999999992206E+03
     ECONS_START_VAL    -4.3014740091867043E+03
     TEMPERATURE     3.0014999999999998E+02
     &THERMOSTAT
       TYPE  NOSE
       REGION  GLOBAL
       &NOSE
         LENGTH  3
         TIMECON     2.2237606346543473E+01
         &COORD
              -1.8035257337723912E-01    9.6688742073593961E+00    1.3002585747246016E+01
         &END COORD
         &VELOCITY
              -5.7336046557268035E-06    1.3479677388705897E-04    1.0042599603244083E-03
         &END VELOCITY
         &MASS
               6.4750332819943212E+05    8.0335400521021347E+02    8.0335400521021347E+02
         &END MASS
         &FORCE
               8.7613685957286093E-08   -1.1566923807916321E-06   -1.1650188337538999E-06
         &END FORCE
       &END NOSE
     &END THERMOSTAT
     &AVERAGES  T
       &RESTART_AVERAGES
         ITIMES_START  1
         AVECPU     2.2366687359135277E+01
         AVEHUGONIOT     0.0000000000000000E+00
         AVETEMP_BARO     0.0000000000000000E+00
         AVEPOT    -4.3018453474191210E+03
         AVEKIN     3.8288560712027458E-01
         AVETEMP     3.0001381582012448E+02
         AVEKIN_QM     0.0000000000000000E+00
         AVETEMP_QM     0.0000000000000000E+00
         AVEVOL     1.8637835790266188E+04
         AVECELL_A     1.9320371010009520E+01
         AVECELL_B     1.9320371010009520E+01
         AVECELL_C     4.9930343883105607E+01
         AVEALPHA     9.0000000000000000E+01
         AVEBETA     9.0000000000000000E+01
         AVEGAMMA     9.0000000000000000E+01
         AVE_ECONS    -5.9097921868707751E+01
         AVE_PRESS     0.0000000000000000E+00
         AVE_PXX     0.0000000000000000E+00
       &END RESTART_AVERAGES
     &END AVERAGES
     &PRINT
       &ENERGY  SILENT
       &END ENERGY
     &END PRINT
   &END MD
   &CONSTRAINT
     &COLLECTIVE
       COLVAR  1
       INTERMOLECULAR  T
       TARGET     3.4015070391917179E+00
       TARGET_GROWTH    -2.2855144621117898E-05
     &END COLLECTIVE
     &LAGRANGE_MULTIPLIERS  SILENT
       COMMON_ITERATION_LEVELS  1
       FILENAME constraint_force.dat
     &END LAGRANGE_MULTIPLIERS
   &END CONSTRAINT
   &PRINT
     &TRAJECTORY  SILENT
       &EACH
         MD  5
       &END EACH
     &END TRAJECTORY
     &VELOCITIES  SILENT
       &EACH
         MD  5
       &END EACH
     &END VELOCITIES
     &RESTART  SILENT
       &EACH
         MD  10
       &END EACH
     &END RESTART
   &END PRINT
 &END MOTION
 &FORCE_EVAL
   METHOD  QS
   &DFT
     BASIS_SET_FILE_NAME BASIS_MOLOPT
     POTENTIAL_FILE_NAME GTH_POTENTIALS
     WFN_RESTART_FILE_NAME ./1-RESTART.wfn
     UKS  T
     CHARGE  0
     &SCF
       MAX_SCF  60
       EPS_SCF     1.0000000000000001E-05
       SCF_GUESS  ATOMIC
       &OT  T
         MINIMIZER  BROYDEN
         BROYDEN_BETA     9.0000000000000002E-01
         BROYDEN_SIGMA     1.0000000000000001E-01
         LINESEARCH  2PNT
         PRECONDITIONER  FULL_ALL
       &END OT
       &OUTER_SCF  T
         EPS_SCF     1.0000000000000001E-05
         MAX_SCF  50
       &END OUTER_SCF
       &PRINT
         &RESTART_HISTORY  SILENT
           ADD_LAST  NUMERIC
           FILENAME = MD_RESTART_HISTORY.wfn
           BACKUP_COPIES  5
           &EACH
           &END EACH
         &END RESTART_HISTORY
       &END PRINT
     &END SCF
     &QS
       EPS_DEFAULT     9.9999999999999998E-13
       EPS_PGF_ORB     9.9999999999999995E-07
       EXTRAPOLATION  ASPC
       EXTRAPOLATION_ORDER  2
     &END QS
     &MGRID
       NGRIDS  5
       CUTOFF     4.5000000000000000E+02
       REL_CUTOFF     6.0000000000000000E+01
     &END MGRID
     &XC
       DENSITY_CUTOFF     1.0000000000000000E-10
       GRADIENT_CUTOFF     1.0000000000000000E-10
       TAU_CUTOFF     1.0000000000000000E-10
       &XC_GRID
         XC_SMOOTH_RHO  NN10
         XC_DERIV  NN10_SMOOTH
       &END XC_GRID
       &XC_FUNCTIONAL  NO_SHORTCUT
         &PBE  T
         &END PBE
       &END XC_FUNCTIONAL
       &VDW_POTENTIAL
         POTENTIAL_TYPE  PAIR_POTENTIAL
         &PAIR_POTENTIAL
           R_CUTOFF     1.0000000000000002E+01
           TYPE  DFTD3
           PARAMETER_FILE_NAME dftd3.dat
           REFERENCE_FUNCTIONAL PBE
         &END PAIR_POTENTIAL
       &END VDW_POTENTIAL
     &END XC
     &PRINT
       &MULLIKEN  SILENT
         FILENAME =CHARGE.mulliken
         &EACH
           MD  5
         &END EACH
       &END MULLIKEN
     &END PRINT
   &END DFT
   &SUBSYS
     &CELL
       A     1.0223900000000002E+01    0.0000000000000000E+00    0.0000000000000000E+00
       B     0.0000000000000000E+00    1.0223900000000002E+01    0.0000000000000000E+00
       C     0.0000000000000000E+00    0.0000000000000000E+00    2.6422000000000001E+01
       PERIODIC  XYZ
       MULTIPLE_UNIT_CELL  1 1 1
     &END CELL
     &COORD
Cu    1.0242192167152597E+01    3.5234083780195830E-01    2.6889631256740543E+01
Cu    2.5681050866201596E+00    3.0592511682418428E+00    2.6983380872135434E+01
Cu    1.0049318366925588E+01    3.9272846634222963E-01    4.0938200799382809E+00
Cu    2.6444672908013591E+00    3.0711151721903507E+00    4.1695885974325355E+00
Cu    2.5953440985893184E+00    3.8897466925969160E-01    2.6963211471437720E+01
Cu    1.0317863682788847E+01    2.8097870019762730E+00    2.7011738715964327E+01
Cu    2.5432347145592513E+00    3.3212101970187780E-01    4.1609020340186662E+00
Cu    1.0428048160380900E+01    2.8642931298619261E+00    4.1688143145171841E+00
Cu    3.6756475563163384E+00    1.7157207498625930E+00    2.5245368787178116E+01
Cu    1.1762166149156283E+00    4.1059729929528608E+00    2.5095818291696798E+01
Cu    3.8175586900191072E+00    1.5153948851636287E+00    2.3422526952305214E+00
Cu    1.3887847964512881E+00    4.2034592174997387E+00    2.3704253873060623E+00
Cu    1.2933539098808742E+00    1.5933193256398557E+00    2.5127252712135189E+01
Ag    3.7679502931589006E+00    4.3440549516420024E+00    2.4858844014134036E+01
Cu    1.3378374866496097E+00    1.6278547920288216E+00    2.4344378211044941E+00
Cu    3.9822726013959655E+00    4.3103055313949614E+00    2.4043190518423749E+00
Cu    5.0876450363725496E+00    4.2065887509550959E-01    2.6884084462847991E+01
Cu    7.7493254363150141E+00    2.8453429717496816E+00    2.7021194063254850E+01
Cu    5.1016836644362256E+00    3.9437416752434090E-01    4.1526831366639456E+00
Cu    7.7606177796350488E+00    2.8323288563646623E+00    4.2080713377433110E+00
Cu    7.7205290551437598E+00    4.4535340999753315E-01    2.6907843217078373E+01
Cu    5.1667723152864564E+00    3.0184338667196888E+00    2.7080987471599588E+01
Cu    7.6646767132223834E+00    1.3849294870403070E-01    4.1132860514270266E+00
Cu    5.1032501197980364E+00    2.8055709808990810E+00    4.1666812072611892E+00
Cu    8.9228553334003227E+00    1.6129129204185677E+00    2.5093286048535191E+01
Cu    6.5735759470130004E+00    4.1407450640513304E+00    2.5162138119583279E+01
Cu    9.0613851303771682E+00    1.6153485408511818E+00    2.2550574918269763E+00
Cu    6.5112983884809159E+00    4.1847872623399747E+00    2.4223439567024143E+00
Cu    6.3173949069817148E+00    1.7851001073340393E+00    2.5242010688842743E+01
Cu    8.9632969350403897E+00    4.0702393548351612E+00    2.5291624152622262E+01
Cu    6.5522185183224488E+00    1.6435932865845311E+00    2.3976720330123622E+00
Cu    9.0796259096360128E+00    4.2287528713646427E+00    2.4345358024046893E+00
Cu    1.0186817252638063E+01    5.4514872124087903E+00    2.7022655560498229E+01
Cu    2.6143616734922648E+00    8.0993651586224491E+00    2.6921936208913060E+01
Cu    1.0335767664968094E+01    5.4646690467728982E+00    4.2086843266488767E+00
Cu    2.4653461534533645E+00    7.9390724776112886E+00    3.9750339812423614E+00
Cu    2.6108525362985446E+00    5.5217100351903516E+00    2.6991480356862795E+01
Cu    1.0376252830210106E+01    8.0817182783178065E+00    2.6872622911092865E+01
Cu    2.7089172467542717E+00    5.5061348012164801E+00    4.1491999919465847E+00
Cu    1.0053825351293266E+01    8.0392813748423002E+00    4.0944503467059725E+00
Cu    3.9643263959591226E+00    6.8536121163839452E+00    2.5305309755703568E+01
Cu    1.1731134588636658E+00    9.2418981775349831E+00    2.5051044118859700E+01
Cu    3.8564678966537422E+00    6.7503854199658608E+00    2.3659305336289069E+00
Cu    1.2753490034801773E+00    9.2808880089305230E+00    2.2540632626206860E+00
Cu    1.2525733593905115E+00    6.5255840940077077E+00    2.5185732479672389E+01
Cu    3.8750589901397201E+00    9.3218906702603785E+00    2.5061850751179055E+01
Cu    1.2068412985330070E+00    6.6338232465194622E+00    2.2358836256811285E+00
Cu    3.7210779357759178E+00    9.3849038705056156E+00    2.3708189930704302E+00
Cu    5.1640776298229838E+00    5.4743942936970003E+00    2.6980796224718475E+01
Cu    7.5839499899233092E+00    7.9043023286942438E+00    2.7046560146522754E+01
Ag    5.3151332243116016E+00    5.4784491072618371E+00    4.8971978460062759E+00
Cu    7.5458715435601800E+00    7.9011151752922535E+00    3.8704459619418699E+00
Cu    7.6961510895601259E+00    5.4133493671170605E+00    2.6964049565959385E+01
Cu    5.0626070142517978E+00    8.0520863660753097E+00    2.6954625855650111E+01
Cu    7.7715260875492946E+00    5.4753439513306157E+00    4.0993843273043593E+00
Cu    5.0910144730130176E+00    8.1487430651602839E+00    4.1738063628465101E+00
Cu    8.8325119736811981E+00    6.6791020516303456E+00    2.5110679239390766E+01
Cu    6.3638770870096009E+00    9.3356296134828707E+00    2.5244447107637324E+01
Cu    8.9790737410013008E+00    6.6706930095102477E+00    2.3054310859146447E+00
Cu    6.2878319049083755E+00    9.3085134498500359E+00    2.2957488936328834E+00
Cu    6.3665388500678839E+00    6.6545668746241144E+00    2.5238243376270251E+01
Cu    8.9089435934097132E+00    9.2566507168360257E+00    2.5101909576503921E+01
Cu    6.2117575630893613E+00    6.7442324827733504E+00    2.1951445447521043E+00
Cu    8.9240400284528008E+00    9.2450885874267872E+00    2.2098106701519336E+00
O    1.0332519914443896E+01    1.8336100079651332E+00    7.2598866261978516E+00
H    9.9184936247547366E+00    1.2183594466953281E+01    6.3793550548248401E+00
H    1.1268866269414787E+01    1.6818370528297653E+00    7.0880352828007984E+00
O    6.8706624727083430E+00    1.0691001391802024E+01    7.3082758474220411E+00
H    6.9733165516945625E+00    1.0729980875122742E+01    8.3177003862671306E+00
H    7.4973963717000753E+00    9.9650898936275301E+00    7.0185233709246830E+00
O    2.6887091406262891E+00    1.0751744808901783E+01    1.8719802147787828E+01
H    1.8145560715962961E+00    1.0966910717388414E+01    1.9079398568066615E+01
H    2.9599274317129378E+00    9.8871555037073744E+00    1.9048530058263839E+01
O    2.8722051367838288E+00    5.4224964947264880E+00    1.0112617335700847E+01
H    2.8525587215552548E+00    5.4118702224580817E+00    9.1548494594245948E+00
H    2.9214309439148098E+00    6.3739286009902090E+00    1.0299952003927558E+01
O    1.9926800477819526E+00    4.6666447607883264E+00    7.5853511106524030E+00
H    2.2796156527062639E+00    4.8670043999603108E+00    6.6885262957432277E+00
H    2.1287895688582821E+00    3.6937674079214364E+00    7.5949057391878991E+00
O    3.0591524934726624E+00    4.0713296126022520E+00    1.4228118192203715E+01
H    3.2663546937199563E+00    3.4511216611040352E+00    1.3543240549462960E+01
H    3.4537258857057700E+00    3.6886303828236566E+00    1.5083129643508540E+01
O    6.2340260664066760E-01    6.6196478402142542E+00    1.8654812717661958E+01
H    3.9643264248483218E-01    6.5036731563534413E+00    1.7687707250021603E+01
H    1.3661230211468247E+00    7.1855905429463167E+00    1.8844747949374700E+01
O    7.4271840542401453E+00    1.1245556787603565E+01    2.2310481110638303E+01
H    6.8148205683114957E+00    1.0720607816001307E+01    2.1693806201357820E+01
H    7.1720745079174337E+00    1.1039398312435399E+01    2.3233399415980678E+01
O    7.1033850274997823E+00    5.0957727877546732E+00    1.9233746230169796E+01
H    7.3455152645997854E+00    5.9789918657224659E+00    1.9511686602206428E+01
H    6.1699001792906385E+00    5.2608013847303283E+00    1.8956517036566161E+01
O    3.1616111435896737E+00    7.5850293648674239E+00    1.3594841502284845E+01
H    2.4222176118748142E+00    6.8590726289239976E+00    1.3433366343434093E+01
H    3.6921658483398896E+00    7.1284124286926671E+00    1.4285628589161607E+01
O    8.3867741610129993E+00    3.9353624240182152E+00    1.7055117278024579E+01
H    7.5605508446797556E+00    3.8237757232762677E+00    1.6516847716028675E+01
H    7.9699273985576475E+00    4.4167352595971625E+00    1.7837373432651333E+01
O   -3.0813959828509330E-01    1.0424589693825038E+01    2.2273558567380583E+01
H    1.0148357977695600E+01    1.0263868417329981E+01    2.3197700407112869E+01
H   -1.2455897743338531E+00    2.1817020041516422E-01    2.2217423954335583E+01
O    4.6337756336173097E+00    5.5756762109268001E+00    1.9227564530064686E+01
H    4.3490799026445295E+00    4.6323293939418901E+00    1.9183681178151630E+01
H    4.3560310205903185E+00    5.8036193250909003E+00    1.8332552767157022E+01
O    4.9089332054130095E+00    4.4100843347698637E+00    1.1520756941449488E+01
H    4.5412281574747357E+00    3.4977146944535988E+00    1.1604751894940843E+01
H    4.1279281264830452E+00    4.8661236577360807E+00    1.1124122211218355E+01
O    3.2774502731053081E+00    6.1462140588939826E+00    1.6667529410384581E+01
H    4.1120622926755983E+00    6.3998011686149709E+00    1.6130369428485604E+01
H    2.7938279222048776E+00    6.9358705107871375E+00    1.6941602329922020E+01
O    6.8461148431319669E+00    4.6392623388272698E+00    1.3396045927128524E+01
H    6.0246228631938896E+00    4.5126824178603089E+00    1.2819793537468502E+01
H    7.3523520801510225E+00    3.7492514532700776E+00    1.3547199622846879E+01
O    5.9627615630813153E+00    9.0803708118436095E+00    1.8383893368965413E+01
H    5.8681897270940278E+00    9.8819764441443017E+00    1.7869016040075586E+01
H    6.7364376156677928E+00    8.6391731193667152E+00    1.7980972984538447E+01
O    2.3512515965431948E+00    8.0526417979654639E+00    1.0383446077928804E+01
H    2.1065573876169483E+00    8.3792368218095543E+00    1.1280178490233215E+01
H    3.1631430547405515E+00    8.4927993729979256E+00    1.0236838724508614E+01
C    5.3528952808070480E+00    5.6136371228540654E+00    6.6917167864271780E+00
O    5.4067387648779768E+00    1.1056880831722776E+01    1.6286346737544132E+01
H    6.0624961887116848E+00    1.0746521561608921E+01    1.5567380554470644E+01
H    4.5383049433131832E+00    1.0840092511465194E+01    1.5880423180430276E+01
O    1.2684883895178880E+00    9.3236366986384756E+00    1.2657793492906299E+01
H    1.7909947227737339E+00    9.4777706884673698E+00    1.3440542829035335E+01
H    9.2794119144892173E-01    1.0172340016756349E+01    1.2401419211913773E+01
O    1.5193385399209380E+00    1.9500698042492255E+00    2.1717198018298873E+01
H    1.6063228614803144E+00    2.7127671667271094E+00    2.2291423296359159E+01
H    8.0025634094557230E-01    1.3722930393229114E+00    2.2042260919884001E+01
O    8.5576741757003525E+00    7.3806176087614270E+00    2.2997293386217141E+01
H    7.6135009079601081E+00    7.5387123439967212E+00    2.2933754332904542E+01
H    8.9982725245068824E+00    6.8666782027194566E+00    2.2207282445166634E+01
O    5.0996437825706620E-01    1.9610990958023697E+00    1.5601202119881446E+01
H    9.8292296996862671E-01    2.4765688589009884E+00    1.6272874050506321E+01
H    1.1716782059773290E-01    1.2088925419002714E+00    1.6095610449473813E+01
O    9.0200551954948356E+00    5.6502018910896554E+00    1.1841800408955452E+01
H    8.2663961800046373E+00    5.3625389210157879E+00    1.2379899043914396E+01
H    8.8316554862839869E+00    6.5620756903253037E+00    1.1506682147766011E+01
O    2.2470202786200169E+00    3.5873581881354424E+00    1.7343108420323087E+01
H    2.5368548044861288E+00    4.4962196646204857E+00    1.7144904109320215E+01
H    3.0579470631912455E+00    3.1613783654890493E+00    1.7657966146384535E+01
O    3.8681758310949856E+00    5.8221374417850260E+00    2.2219348594240682E+01
H    3.5377601967801473E+00    6.0029905822329699E+00    2.3089188419919122E+01
H    4.7099513810847684E+00    6.4007401687726873E+00    2.2127125782031129E+01
O    1.7403302308651465E+00    4.8491291204095308E+00    2.0568482763829522E+01
H    2.5335661454041305E+00    5.1593952976266815E+00    2.1049204081247421E+01
H    1.6274142183073435E+00    5.4051397268122372E+00    1.9801813589225283E+01
O    5.7529385308271221E+00    4.7274794728258673E-01    1.1900877942743344E+01
H    6.3346346724485825E+00    3.9092110451972650E-01    1.2719191353438063E+01
H    5.5458686420087400E+00    9.7266378400075677E+00    1.1833284549746960E+01
O    4.3309283686567346E+00    2.5055334069513995E+00    1.9320322101082638E+01
H    3.7621633620457122E+00    1.7398168309452893E+00    1.9099873917758188E+01
H    4.3800413808049976E+00    2.6017875368022034E+00    2.0325831379917624E+01
O    2.5625900033646327E+00    1.0398900741000860E+01    6.2279673121430621E+00
H    1.9281561541029471E+00    9.6597125676515958E+00    6.4614064733007686E+00
H    3.4991592443493142E+00    1.0121719230940776E+01    6.4803032812083305E+00
O    7.0241549704104802E+00    2.7835633751516498E-01    1.4298216952267966E+01
H    7.6777695908122734E+00    9.8795148655091514E-01    1.4221113488379880E+01
H    7.5697072126300826E+00    9.6647247670881296E+00    1.4390358421139252E+01
O    7.3366859363943684E+00    1.4876628498153912E+00    1.0034434313390717E+01
H    6.7175664119723146E+00    1.1317715547258818E+01    1.0727531979103032E+01
H    7.1840632929130388E+00    2.4451076496866895E+00    9.8385425835967588E+00
O   -1.6437715577518628E+00    8.0334292330543811E+00    1.3491632845363913E+01
H   -9.4789091208738852E-01    8.5528901261707002E+00    1.3059697421272620E+01
H    9.0478328912482091E+00    7.2611767898920752E+00    1.3930092238499455E+01
O    4.7577942663720201E+00    8.9711208868826589E+00    6.5046854990914369E+00
H    5.3026834013115165E+00    9.7470211462413925E+00    6.9147821879139046E+00
H    4.7621938724609327E+00   -2.1124337283267383E+00    7.0494890307241720E+00
O    2.7756424996916751E-01    4.0914436112204475E+00    1.0434117636288486E+01
H    1.2555961884486668E+00    4.2510855755740700E+00    1.0401808579199995E+01
H   -1.9842675139932844E-01    4.6778103766605099E+00    1.1027497097335576E+01
O    5.7228456928045475E+00    9.7274602968836206E+00    2.0806667721739732E+01
H    5.8838852157575880E+00    9.3699595950898491E+00    1.9890883915063998E+01
H    4.7403662596169527E+00    9.8822715416397617E+00    2.1210671268704374E+01
O    9.4385900362462145E+00    9.8964413266854176E+00    1.6730302302618757E+01
H   -7.0284462914544946E-02    9.3230094105232180E+00    1.6645447658240798E+01
H    9.3804680417530566E+00   -4.9364664195074327E-02    1.7731295281565679E+01
O    6.9931630069841235E+00    2.2271240419517908E+00    1.9403798921835836E+01
H    5.9579354514405436E+00    2.1919223756982715E+00    1.9273692960519345E+01
H    7.2765803855662101E+00    2.9388812850850896E+00    1.8785644204701757E+01
O   -6.4156410536515596E-01    1.8355225960027151E+00    1.1534248700745357E+01
H    8.7239221911427300E+00    1.7280669552424874E+00    1.0924256026770811E+01
H   -1.2204629269714763E-01    2.6029343734765158E+00    1.1152768943626253E+01
O   -1.5089819000217544E-01    5.4466937654188650E+00    2.2235862939228451E+01
H    5.5069566667710812E-01    5.1570961222285518E+00    2.1554698552254077E+01
H    2.0131985201068878E-01    5.0941604715641855E+00    2.3129582006136399E+01
O    6.4289681283311433E+00    7.2798690101607813E+00    9.4279817826111003E+00
H    5.8928910004992492E+00    7.0300677808227663E+00    8.6081474021498767E+00
H    5.8136332268334376E+00    7.2932792607545522E+00    1.0173876084148436E+01
O   -1.3978179335853806E+00    7.5489279241579634E+00    1.0091811737222102E+01
H   -2.3479748621102545E+00    7.5657621047068622E+00    9.7426502195419022E+00
H   -7.6937211633605629E-01    8.1238833909535924E+00    9.5780625328559417E+00
O    8.4148549712805618E+00    2.3619894575892126E+00    1.3681741851283043E+01
H    8.9254679697664407E+00    2.2408465970846385E+00    1.2701864810983761E+01
H   -1.0834349820219618E+00    2.3946471266887817E+00    1.4327143181679194E+01
O    5.5582297840560901E+00    3.7239147639890042E+00    1.6137710376628043E+01
H    5.4520046563376852E+00    2.7529714415539281E+00    1.6108642246350691E+01
H    5.8647404351423855E+00    4.0170857341751240E+00    1.5263351003532891E+01
O    5.8310157820893105E+00    6.9203258446096081E+00    1.5424549346993505E+01
H    6.2556755979846166E+00    6.2546804780894130E+00    1.4919783815340077E+01
H    6.5709291821542948E+00    7.3802040694904720E+00    1.5968032469681285E+01
O    8.8143062336091518E+00    1.0590289449139897E+01    1.9206398446433713E+01
H    8.0282827752252359E+00    1.1266883943470869E+01    1.9242203400515546E+01
H    9.5172799594924378E+00    1.1207031212863164E+01    1.9536831055784337E+01
O    5.9195177155604179E+00    7.7626906292327131E+00    2.2362892561369708E+01
H    5.8247816713756473E+00    8.4599490557403474E+00    2.1617230491590291E+01
H    5.4988707903738980E+00    8.0844352420719190E+00    2.3208665088223171E+01
O    1.1501325991735312E+00    7.8349600597564892E+00    7.0146471150031466E+00
H    1.4581385928209292E+00    7.4679260347069478E+00    7.8832537534178648E+00
H    1.0491432101594353E+00    7.1904219396579521E+00    6.2919612847351836E+00
O    9.8578079040943667E+00    6.1323005747981902E+00    1.6240120085929735E+01
H    1.3520457412720033E-01    6.0678541386984399E+00    1.5345492875698175E+01
H    9.3431365595731908E+00    5.2573816467438625E+00    1.6290571744084392E+01
O    3.6783574174177036E+00    2.0369697994444138E+00    1.2025060199548726E+01
H    3.0407788056715015E+00    1.5750760708711982E+00    1.1429028421456545E+01
H    4.4352884853565433E+00    1.3801556649221669E+00    1.2140419175128757E+01
O    7.6853201795160881E+00    1.2952352980707960E+01    6.4306517557372773E+00
H    7.4821106709616645E+00    1.2048286695492171E+01    6.7294609228490154E+00
H    6.8892460887041711E+00    1.3447338062854856E+01    6.7419823686978164E+00
O    8.6130881810066722E+00    7.5906403355980352E+00    1.9964667593026704E+01
H    9.3750712553009592E+00    7.3216719501292831E+00    1.9316279718070227E+01
H    8.4864297659174088E+00    8.4637930124125766E+00    1.9625501722172611E+01
O    2.9918869028865114E-01    2.4689397269760169E+00    1.9358445406673390E+01
H    1.1099282669636907E+00    2.5603746391905213E+00    1.9966921573278757E+01
H    1.0777960974887096E+01    3.0382646878242969E+00    1.8616720669769247E+01
O    6.8989426804450416E+00    3.9767850833558134E+00    9.7678625410613584E+00
H    6.3900679662156250E+00    4.0468573007999353E+00    8.9583853838823693E+00
H    6.2543472592647165E+00    4.2986228959515076E+00    1.0484889406298810E+01
O    3.5653498161176316E+00    1.2517879597352156E+01    7.7223763212461467E+00
H    4.0925564321657166E+00    1.3297917670463994E+01    7.6053885416412674E+00
H    3.4882759170000734E+00    1.2133912924231570E+01    6.8266554716983183E+00
O    3.5405325328885136E+00    9.9260292496855786E+00    2.2426944750749115E+01
H    3.0509289137954925E+00    1.0797152821891041E+01    2.2440014050190442E+01
H    2.7686592434746657E+00    9.3285514453203096E+00    2.2228192934032062E+01
O    5.0544970895295105E+00    8.1514095538616704E+00    1.1929601091990532E+01
H    5.9174070894051756E+00    7.9002983750902542E+00    1.2345078699452994E+01
H    4.2594450271644959E+00    7.8713439942986501E+00    1.2519892650354445E+01
K   -1.0869624194929162E+00    4.6858025344637513E+00    8.0675544014014466E+00
O    2.6656506896415904E+00    3.7442830714660652E-01    1.4746632769019698E+01
H    1.9103314268497746E+00    9.1437850384460106E-01    1.5097717306114415E+01
H    2.8345175180582038E+00    8.8328119024057206E-01    1.3926215123193915E+01
O    7.9571127430005806E+00    7.8496112067313080E+00    1.6921933324961500E+01
H    8.4593708216829064E+00    8.6739194166419473E+00    1.6670407914415001E+01
H    8.5080409725497166E+00    7.0947014676260052E+00    1.6804570431061368E+01
O    1.1169508066413965E+00    8.2086039480675712E+00    2.1565519919700890E+01
H    4.1621621055903418E-01    8.8785974558954130E+00    2.1621333593544019E+01
H    8.7797291678995593E-01    7.3610190435114067E+00    2.1910468897137566E+01
O    1.6515648401381366E+00    8.6950010022334432E+00    1.6808230014841183E+01
H    2.0708424135886130E+00    8.9244754723468436E+00    1.5929685539560921E+01
H    2.0631443858097853E+00    9.2584991756281276E+00    1.7486953054759908E+01
O    2.2220040849653970E+00    1.0308379536457994E+00    9.9987035878263537E+00
H    1.3901667212679696E+00    5.1589488205180556E-01    9.7996909213663503E+00
H    2.4860744317523178E+00    1.4732327649492196E+00    9.1330315731978029E+00
O    8.5307576045265554E-01    5.8774043750922136E+00    1.3918049336555788E+01
H    1.3850314148400109E+00    5.1029390096847749E+00    1.4146910539490099E+01
H    3.6934237300354145E-01    5.4866369474174164E+00    1.3130373254626839E+01
O    1.0052817642512709E+01    1.0224527683640881E+01    9.2985324285271620E+00
H    9.2792961925740229E+00    1.0741167430304790E+01    9.4486210526001475E+00
H    1.0282495345839122E+01    1.0639750459849330E+01    8.4281764256563747E+00
O   -2.1242063179512960E+00    8.2716963435679656E+00    6.8190468349831574E+00
H   -2.6970939912038014E+00    7.9811440359011376E+00    6.0832352536842693E+00
H   -1.2360045544041403E+00    8.0239405930203382E+00    6.4769754878931680E+00
O    2.7805403833603748E+00    8.0553317709872321E+00    1.9562269948166513E+01
H    3.4994776665952196E+00    7.4180084639477455E+00    1.9573197137951652E+01
H    2.2842078720396923E+00    7.9275802545229510E+00    2.0394959021434996E+01
K    7.7537775150779860E+00    3.8824104213021897E+00    2.1912705583630277E+01
O    4.8483258945837795E+00    3.2250520499430926E+00    2.1739158091610552E+01
H    4.6084691894732250E+00    4.1351458795905556E+00    2.1953637924067888E+01
H    4.5859250194680685E+00    2.8184372541732694E+00    2.2584315463170302E+01
O    4.9178810009016960E+00    6.5729852521250587E+00    7.4588511316450559E+00
O    5.8369195595738139E+00    4.5219408466104740E+00    7.2846796289296201E+00
     &END COORD
     &VELOCITY
          -2.2409840280872554E-05   -5.7896545147423943E-05   -2.7068836077078066E-05
           1.5707070603016428E-04    9.9030206633182087E-05    4.5597400480461995E-05
           1.3515141455791333E-04    5.3258275968234298E-05   -1.2626395096761942E-04
           1.1353276963577420E-04   -5.9801707572754937E-05    3.3914893634822602E-05
          -3.0694341488687352E-05   -6.6015044434572962E-05    2.3662723969239540E-05
           2.3217960634405584E-05    1.0882787365329564E-04   -7.0793276360418055E-05
          -1.0439853114908484E-04    1.7754490624371898E-04    2.0216307167078784E-04
           1.9301292410556804E-05   -5.0613730412224984E-05    2.9882274610293902E-05
           1.9804195236087691E-04    8.7802398245394490E-05   -2.1042319347017759E-05
          -1.8751002551985970E-05    1.6431153961956840E-04   -8.4656198703367342E-05
          -7.6951750573146145E-05   -9.0816231777225023E-05    5.3121048698063948E-05
          -8.3772771348800164E-05    1.0520001370267146E-06    1.3919321009027735E-05
           1.0494446219095103E-04   -4.4412342906304325E-05   -8.8278665013352800E-05
          -1.1994467529741605E-04   -1.1506491981789974E-04    1.0838581456843427E-04
          -9.9347119249116518E-06    7.9108837801359701E-07    9.3291689194658183E-05
           2.7163049714609268E-05   -7.3027333547200551E-05   -2.9487711521712477E-05
           6.9722250466807309E-05   -7.5346632927960618E-05    4.7341538259642803E-05
          -6.8882229547090803E-05    5.8203008565303934E-05   -4.4855141388123381E-05
           4.1948009992217773E-05    1.8470701933022559E-04   -6.1129661031126474E-05
          -9.5958623286229600E-05   -5.7596819314246238E-05    3.9670178699418400E-05
          -1.3180618862236224E-04   -6.6438825444565229E-05    1.2472318703974741E-04
           6.3824170937552528E-05   -1.0579328298549178E-04   -2.7561888217448802E-05
          -2.9733325706262347E-05   -2.8178329630198778E-05   -5.3814300888920452E-05
           5.5030862831997182E-05    9.2760045043774354E-06    4.3691844910032006E-05
          -1.3328342130610208E-04    2.1735037919804999E-05   -4.1690203772651390E-05
          -4.8708518143105748E-05    2.8756081200174466E-06    2.6085081866677766E-06
          -1.0074077695436699E-04   -4.6837675417596146E-05    1.7673406599451178E-04
          -1.4930469959716745E-04    3.9748406393448481E-05   -9.0726336916494051E-05
          -1.0859072635558923E-04    5.3336271683042476E-05   -8.7410450523799031E-05
          -7.7569462346811324E-05   -9.7914102850052769E-06    1.4869544815754359E-04
          -4.6032192080343434E-05   -4.9274883012336877E-05   -3.3146033019359651E-05
           4.5364561238959930E-05   -9.0838309483986913E-05    9.2386594576017902E-08