 # Version information for this restart file 
 # current date 2026-02-07 18:12:24.498
 # current working dir /home/shaofl/projects/03_CuAg_SAA/explicit/1K/co2/adsorption
 # Program compiled at                              Wed Jun 16 17:08:34 CST 2021
 # Program compiled on                                                       mgr
 # Program compiled for                                       Linux-x86-64-intel
 # Source code revision number                                       git:e635599
 &GLOBAL
   PRINT_LEVEL  LOW
   PROJECT_NAME slowgrowth
   RUN_TYPE  MD
 &END GLOBAL
 &MOTION
   &MD
     ENSEMBLE  NVT
     STEPS  8000
     TIMESTEP     9.9999999999999989E-01
     STEP_START_VAL  1000
     TIME_START_VAL     9.9999999999999272E+02
     ECONS_START_VAL    -4.3014740091867043E+03
     TEMPERATURE     3.0014999999999998E+02
     &THERMOSTAT
       TYPE  NOSE
       REGION  GLOBAL
       &NOSE
         LENGTH  3
         TIMECON     2.2237606346543473E+01
         &COORD
              -5.8853627056832600E-02    3.8863047231398475E+00   -3.9732063530465753E+00
         &END COORD
         &VELOCITY
              -6.0877668247640647E-05   -7.6503039428165440E-04   -2.0883634678659051E-03
         &END VELOCITY
         &MASS
               6.4750332819943212E+05    8.0335400521021347E+02    8.0335400521021347E+02
         &END MASS
         &FORCE
               1.1396706861352200E-07    1.8039199319591956E-06   -5.9791749982951533E-07
         &END FORCE
       &END NOSE
     &END THERMOSTAT
     &AVERAGES  T
       &RESTART_AVERAGES
         ITIMES_START  1
         AVECPU     2.3294964281622317E+01
         AVEHUGONIOT     0.0000000000000000E+00
         AVETEMP_BARO     0.0000000000000000E+00
         AVEPOT    -4.3018547714987590E+03
         AVEKIN     3.8188681281735926E-01
         AVETEMP     2.9923120063568092E+02
         AVEKIN_QM     0.0000000000000000E+00
         AVETEMP_QM     0.0000000000000000E+00
         AVEVOL     1.8637835790266097E+04
         AVECELL_A     1.9320371010009548E+01
         AVECELL_B     1.9320371010009548E+01
         AVECELL_C     4.9930343883104619E+01
         AVEALPHA     9.0000000000000000E+01
         AVEBETA     9.0000000000000000E+01
         AVEGAMMA     9.0000000000000000E+01
         AVE_ECONS    -6.3029889446975549E+00
         AVE_PRESS     0.0000000000000000E+00
         AVE_PXX     0.0000000000000000E+00
       &END RESTART_AVERAGES
     &END AVERAGES
     &PRINT
       &ENERGY  SILENT
       &END ENERGY
     &END PRINT
   &END MD
   &CONSTRAINT
     &COLLECTIVE
       COLVAR  1
       INTERMOLECULAR  T
       TARGET     9.7131923230313237E+00
       TARGET_GROWTH    -2.2855144621117898E-05
     &END COLLECTIVE
     &LAGRANGE_MULTIPLIERS  SILENT
       COMMON_ITERATION_LEVELS  1
       FILENAME constraint_force.dat
     &END LAGRANGE_MULTIPLIERS
   &END CONSTRAINT
   &PRINT
     &TRAJECTORY  SILENT
       &EACH
         MD  5
       &END EACH
     &END TRAJECTORY
     &VELOCITIES  SILENT
       &EACH
         MD  5
       &END EACH
     &END VELOCITIES
     &RESTART  SILENT
       &EACH
         MD  10
       &END EACH
     &END RESTART
   &END PRINT
 &END MOTION
 &FORCE_EVAL
   METHOD  QS
   &DFT
     BASIS_SET_FILE_NAME BASIS_MOLOPT
     POTENTIAL_FILE_NAME GTH_POTENTIALS
     WFN_RESTART_FILE_NAME ./1-RESTART.wfn
     UKS  T
     CHARGE  0
     &SCF
       MAX_SCF  60
       EPS_SCF     1.0000000000000001E-05
       SCF_GUESS  ATOMIC
       &OT  T
         MINIMIZER  BROYDEN
         BROYDEN_BETA     9.0000000000000002E-01
         BROYDEN_SIGMA     1.0000000000000001E-01
         LINESEARCH  2PNT
         PRECONDITIONER  FULL_ALL
       &END OT
       &OUTER_SCF  T
         EPS_SCF     1.0000000000000001E-05
         MAX_SCF  50
       &END OUTER_SCF
       &PRINT
         &RESTART_HISTORY  SILENT
           ADD_LAST  NUMERIC
           FILENAME = MD_RESTART_HISTORY.wfn
           BACKUP_COPIES  5
           &EACH
           &END EACH
         &END RESTART_HISTORY
       &END PRINT
     &END SCF
     &QS
       EPS_DEFAULT     9.9999999999999998E-13
       EPS_PGF_ORB     9.9999999999999995E-07
       EXTRAPOLATION  ASPC
       EXTRAPOLATION_ORDER  2
     &END QS
     &MGRID
       NGRIDS  5
       CUTOFF     4.5000000000000000E+02
       REL_CUTOFF     6.0000000000000000E+01
     &END MGRID
     &XC
       DENSITY_CUTOFF     1.0000000000000000E-10
       GRADIENT_CUTOFF     1.0000000000000000E-10
       TAU_CUTOFF     1.0000000000000000E-10
       &XC_GRID
         XC_SMOOTH_RHO  NN10
         XC_DERIV  NN10_SMOOTH
       &END XC_GRID
       &XC_FUNCTIONAL  NO_SHORTCUT
         &PBE  T
         &END PBE
       &END XC_FUNCTIONAL
       &VDW_POTENTIAL
         POTENTIAL_TYPE  PAIR_POTENTIAL
         &PAIR_POTENTIAL
           R_CUTOFF     1.0000000000000002E+01
           TYPE  DFTD3
           PARAMETER_FILE_NAME dftd3.dat
           REFERENCE_FUNCTIONAL PBE
         &END PAIR_POTENTIAL
       &END VDW_POTENTIAL
     &END XC
     &PRINT
       &MULLIKEN  SILENT
         FILENAME =CHARGE.mulliken
         &EACH
           MD  5
         &END EACH
       &END MULLIKEN
     &END PRINT
   &END DFT
   &SUBSYS
     &CELL
       A     1.0223900000000002E+01    0.0000000000000000E+00    0.0000000000000000E+00
       B     0.0000000000000000E+00    1.0223900000000002E+01    0.0000000000000000E+00
       C     0.0000000000000000E+00    0.0000000000000000E+00    2.6422000000000001E+01
       PERIODIC  XYZ
       MULTIPLE_UNIT_CELL  1 1 1
     &END CELL
     &COORD
Cu    9.9965249776846186E+00    1.5085098560776297E-01    2.6000793670942240E+01
Cu    2.4081179576816600E+00    2.9400875641256157E+00    2.6059229758983019E+01
Cu    1.0172972406613264E+01    2.7685996068266450E-01    3.2591053930159744E+00
Cu    2.4336736517913464E+00    2.8274927167261663E+00    3.2722632599907500E+00
Cu    2.3392847357252573E+00    3.1905963648199837E-01    2.5955928585159619E+01
Cu    1.0034634300217764E+01    2.8251574102812729E+00    2.6183570014063577E+01
Cu    2.3523447095798407E+00    3.2213591697096511E-01    3.2362507279471009E+00
Cu    9.9020714901493019E+00    2.8795410550434113E+00    3.3099437647587222E+00
Cu    3.7077660840166713E+00    1.5305840674189997E+00    2.4370054675356485E+01
Cu    8.9322578782808681E-01    4.1510362924322592E+00    2.4346914106683112E+01
Cu    3.6479151730229726E+00    1.6569984843970811E+00    1.3594093423881448E+00
Cu    1.0926083644953348E+00    4.1507637069992809E+00    1.5697973390910200E+00
Cu    1.0942733368540689E+00    1.7833607888693066E+00    2.4282943153012322E+01
Ag    3.5298071442559587E+00    4.0598745152578228E+00    2.3931113526656560E+01
Cu    9.1130431716790716E-01    1.4263741546521758E+00    1.4828332168698830E+00
Cu    3.7147271726972457E+00    4.1456017337589985E+00    1.3767583079707617E+00
Cu    5.0277060452035904E+00    2.4240536596242968E-01    2.5912756540349207E+01
Cu    7.4843021993019763E+00    2.8470617488455834E+00    2.6096031426090573E+01
Cu    4.9509910310031842E+00    3.7489246214817518E-01    3.1880253217796239E+00
Cu    7.4984615609791287E+00    2.8726280180553876E+00    3.2596698366838432E+00
Cu    7.5318404215217782E+00    2.2418692492309017E-01    2.5994300279237514E+01
Cu    4.9528457032624802E+00    2.9646025538705687E+00    2.5975448765620694E+01
Cu    7.4466120737533137E+00    2.8809899069810546E-01    3.1932996600617165E+00
Cu    5.0083596508648407E+00    2.8194305491181675E+00    3.1983333391492286E+00
Cu    8.7415118225578770E+00    1.6080050381886546E+00    2.4340576197192171E+01
Cu    6.2384096548345820E+00    4.2360338184097062E+00    2.4154069931716460E+01
Cu    8.6951641452886008E+00    1.5210485933428779E+00    1.5772920496129244E+00
Cu    6.2238810864341447E+00    4.1146597054999683E+00    1.3763227614885030E+00
Cu    6.2441249230397693E+00    1.6419444130049796E+00    2.4270902161951305E+01
Cu    8.7203287484195826E+00    4.1502680226877651E+00    2.4290663373207643E+01
Cu    6.2329880675532214E+00    1.5797648665319708E+00    1.4398979226836723E+00
Cu    8.7824005203041171E+00    4.0236677662610347E+00    1.5762128431811746E+00
Cu    1.0004184316870321E+01    5.3698011986571252E+00    2.6175160328317080E+01
Cu    2.2725639571483027E+00    8.0457752450682083E+00    2.6106256093364895E+01
Cu    9.9960651963784297E+00    5.4520227940136721E+00    3.4166723405634221E+00
Cu    2.1868356990613060E+00    8.0948661767318431E+00    3.3467439673816806E+00
Cu    2.3036113592784120E+00    5.4685572280303374E+00    2.6065193619768873E+01
Cu    9.9489898554504403E+00    7.8902865163090423E+00    2.6068162818380770E+01
Cu    2.2299582560691631E+00    5.2775352057194711E+00    3.2897292946506411E+00
Cu    9.8377995075952711E+00    7.9325012146683243E+00    3.2599708652786994E+00
Cu    3.5625091327823299E+00    6.7671320788570215E+00    2.4374872644883336E+01
Cu    1.1624150314148463E+00    9.3196261709672612E+00    2.4210507966470928E+01
Cu    3.4482223673832717E+00    6.6708208915095941E+00    1.5139586042586268E+00
Cu    1.0782263174185949E+00    9.2173795193433534E+00    1.4804190467461991E+00
Cu    9.8586659803999566E-01    6.5658560233922652E+00    2.4394004358173607E+01
Cu    3.6352388507441229E+00    9.1949481603527463E+00    2.4276973841799034E+01
Cu    1.0041248745788165E+00    6.6699065397210662E+00    1.4916954453275748E+00
Cu    3.6600753583450056E+00    9.2295623774893194E+00    1.4888218958219748E+00
Cu    4.8652383912091013E+00    5.5945033945497347E+00    2.6124566331048463E+01
Cu    7.4011437758421232E+00    7.9821767367740177E+00    2.6292749884515828E+01
Ag    4.8104252794135016E+00    5.4429092807989745E+00    3.4933944921680804E+00
Cu    7.4257066178252709E+00    7.9874027481778089E+00    3.4158533625414957E+00
Cu    7.4159693498619452E+00    5.3392476275072722E+00    2.6085133106184813E+01
Cu    4.8138422428726768E+00    7.9556907636475795E+00    2.6095216219338212E+01
Cu    7.3371783102621464E+00    5.3820145020758350E+00    3.3648356791981158E+00
Cu    4.9423389035343490E+00    8.1444488303911555E+00    3.3311161740330468E+00
Cu    8.7329003579856845E+00    6.6421746319925825E+00    2.4356045084187873E+01
Cu    6.2330549925422076E+00    9.1006258956967976E+00    2.4167446579478913E+01
Cu    8.6083784989993894E+00    6.5410158875242006E+00    1.6201524897678770E+00
Cu    6.0825650935961795E+00    9.2012350145187582E+00    1.5427635958020449E+00
Cu    6.1773516167524516E+00    6.6974973502824113E+00    2.4415622719501428E+01
Cu    8.6632674555601454E+00    9.1827308782097870E+00    2.4282582000816461E+01
Cu    6.0725165783317765E+00    6.7459547729398830E+00    1.5526883694378197E+00
Cu    8.6611974389176307E+00    9.2822992869045269E+00    1.4798052488828515E+00
O    6.0582779550073793E+00    2.3599606028684922E-01    6.5449196857626131E+00
H    5.4773386083544171E+00    9.7171538108821505E+00    6.7572641011191203E+00
H    6.5383886199888623E+00    4.1363881857871355E-02    5.7424429262002272E+00
O    8.3625427366794511E+00    7.0116652049558796E+00    6.7380654647136122E+00
H    8.4838300640561357E+00    7.9899791530760318E+00    6.6494793637789433E+00
H    8.4142959948048652E+00    6.8664237277491766E+00    5.7832836317770786E+00
O    2.5341722170036913E+00    9.0858535475576563E+00    1.6634200111200609E+01
H    2.3423634187288283E+00    8.5593159742419918E+00    1.7449611358096703E+01
H    2.6521570190405410E+00    8.2665959970744023E+00    1.6027877791354733E+01
O    4.5711292205456298E+00    5.6377100109540557E+00    8.9323838767725636E+00
H    4.2827186553789582E+00    5.5320958048106332E+00    7.9394020566015646E+00
H    4.8405213097414643E+00    6.6095081097716450E+00    9.2129313264562462E+00
O    3.7394805120195791E+00    2.2379712745776397E+00    6.8413823115562176E+00
H    3.9301290740084824E+00    3.0661632276969768E+00    6.3401427356227806E+00
H    4.3784919728581855E+00    1.5646921917976535E+00    6.4174572713857811E+00
O    3.9709900011712778E+00    3.8263640854880325E+00    1.2683829738919155E+01
H    3.5847434877137139E+00    3.0019417712502010E+00    1.2345187911911673E+01
H    4.3188146412531347E+00    3.5822801813865643E+00    1.3588811064184668E+01
O    2.3337184280449241E+00    4.7913355160015838E+00    1.7627970447082042E+01
H    1.9205116797617408E+00    4.7933982923400666E+00    1.6808867782761773E+01
H    2.0712476135810198E+00    5.6835845081533796E+00    1.7973618110336449E+01
O    8.4889389226055005E+00    1.0132170824942129E+01    2.1437131981414353E+01
H    8.0321348532364105E+00    9.6010084007505814E+00    2.0713103821726072E+01
H    7.9913685552366935E+00    1.0069960027958727E+01    2.2278610926147401E+01
O    7.6267093972648023E+00    4.4446376477954619E+00    1.8579190492062594E+01
H    8.0960868587876345E+00    5.3545411255670547E+00    1.8479296728554750E+01
H    6.6734726008325183E+00    4.5571885345764009E+00    1.8491052267334961E+01
O    2.9953196568866844E+00    7.1001053461029580E+00    1.2119173073342672E+01
H    3.0385033187905486E+00    6.2034683293557569E+00    1.1702933458152511E+01
H    2.6570628467740964E+00    7.7425170723069039E+00    1.1484792351663570E+01
O    8.9953551106807961E+00    3.6572235898957830E+00    1.6521266907256425E+01
H    8.4853793591442290E+00    2.9707641395624824E+00    1.5977893427429503E+01
H    8.2188633787641354E+00    3.9895835643035800E+00    1.7085487089980969E+01
O    8.1664449752037327E-01    9.5326136344101773E+00    2.2081231812382100E+01
H    1.0114760324785165E+01    9.5888789118316087E+00    2.1681652130440327E+01
H    1.1605160181331482E+00    2.1456060030298832E-01    2.1804828188993589E+01
O    4.7754677721728145E+00    4.2286946355033157E+00    1.8923623320170861E+01
H    4.4623552204507915E+00    4.6220262204837272E+00    1.9847377188502101E+01
H    4.0870283998658259E+00    4.3529326029914150E+00    1.8198076332771222E+01
O    5.8532382158873419E+00    4.0235935698894192E+00    1.0694461654538879E+01
H    5.1858869018211120E+00    4.2239157540478809E+00    1.1398775314436500E+01
H    5.6065110307512063E+00    4.6305561583940307E+00    9.9318100705033636E+00
O    4.8892222900463631E+00    5.8801939436593571E+00    1.5807210782863754E+01
H    5.6551756783208269E+00    5.9197155626450675E+00    1.5165265085918074E+01
H    4.1498388049515258E+00    6.3085930818544291E+00    1.5399067665174762E+01
O    7.8191687634694951E+00    4.2028345461158239E+00    1.2727866462505403E+01
H    7.3099851547407839E+00    4.1508323564244112E+00    1.1876423407118960E+01
H    8.1221175153858258E+00    3.2571436197060186E+00    1.2993520613829943E+01
O    5.1025529466416515E+00    7.7420562845721426E+00    1.7830806591961885E+01
H    5.3164745983926505E+00    8.3519988646792402E+00    1.7078436187443323E+01
H    5.0074387756881951E+00    6.8985441197272683E+00    1.7357833325069894E+01
O    5.5994201764978815E+00    7.7839411308636786E+00    9.7970408216823142E+00
H    5.5319685777597138E+00    7.7449001036822080E+00    1.0818154569104626E+01
H    5.0074735783306501E+00    8.5057959586358276E+00    9.4339649305233007E+00
C    7.7251754649048836E+00    4.4664881535032439E+00    7.6129130487889762E+00
O    5.5426346628831160E+00    9.5447182261643722E+00    1.5648677503108066E+01
H    6.1727270262777711E+00    9.4411560872283182E+00    1.4853828483025870E+01
H    4.6483585121506055E+00    9.4612975576556178E+00    1.5306898465580154E+01
O    1.6280447448137210E+00    8.9630817309156079E+00    1.0093295640378686E+01
H    2.3471368796878402E+00    9.5217231211167981E+00    9.7419827657349547E+00
H    9.0095734014507922E-01    9.5775808624912262E+00    9.8979498092832454E+00
O    4.4122065376277986E+00    6.4564921022325370E-03    2.1257063998078884E+01
H    4.5592433332684985E+00    1.0392019809306553E-01    2.2244553208964387E+01
H    3.6198339989580086E+00    5.3270168869731283E-01    2.1085073124228334E+01
O    9.6251068050185165E+00    5.4587614465049530E+00    2.1319255242380706E+01
H    9.5991442247939034E+00    5.3795232353044682E+00    2.2300894536577708E+01
H    8.7415066508803747E+00    5.7938075337979571E+00    2.1070014574183531E+01
O    9.8289883510505238E-01    1.7217884730622834E+00    1.5013885296136486E+01
H    1.3042258116626921E+00    2.3527585870441650E+00    1.4316959421292093E+01
H    1.1317726590302328E+00    1.9439166475090863E+00    1.6012957788945744E+01
O    9.8745854694181823E+00    5.7163555415900182E+00    1.1678984742374883E+01
H    9.1216158141336710E+00    5.0487002592778092E+00    1.1865206357563556E+01
H    9.9036784314820654E+00    5.6267441799490490E+00    1.0690055002734161E+01
O    4.3570266237477790E+00    3.0352633308175836E+00    1.5187823148058957E+01
H    4.3448716939646221E+00    3.9660947123265582E+00    1.5597994775853277E+01
H    4.1152822008627155E+00    2.4561551574034266E+00    1.5981621652069320E+01
O    6.3110874906547396E+00    4.0509328375804623E+00    2.2007224725824436E+01
H    5.3391830443174744E+00    3.9288727408579267E+00    2.1831830808786201E+01
H    6.5296277631111632E+00    5.0227796112450207E+00    2.1786229516169040E+01
O    1.4720467185093258E+00    4.0253999600359460E+00    2.0127287530859672E+01
H    8.0236423818832625E-01    4.6720934187816097E+00    2.0454051057096567E+01
H    1.7298188547414366E+00    4.2395997758847486E+00    1.9178523454527703E+01
O    5.6822013249686050E+00    3.6607565822036092E-01    1.2111271703572925E+01
H    6.5861635144087476E+00    5.2846332967583953E-01    1.1766934854118269E+01
H    5.7599432416560363E+00    9.6698239254198075E+00    1.2460685866803459E+01
O    3.8394174705977839E+00    1.2644512988393071E+00    1.7520476719643220E+01
H    3.6544510637978971E+00    2.9787477020983416E-01    1.7332592313353967E+01
H    4.6302921360434102E+00    1.4462094545482131E+00    1.8184331643476334E+01
O    1.8107521784234548E+00    7.5863143496235628E+00    6.1791673461227008E+00
H    1.0821005601139959E+00    7.5532721937217220E+00    5.5491072291938996E+00
H    2.1786378000091235E+00    6.7075998988709173E+00    6.3488721050655244E+00
O    7.8871293919984398E+00   -3.2260493371525256E-01    1.3989444506213328E+01
H    8.1790549591400481E+00    4.9961157551089752E-01    1.3512528448970128E+01
H    8.2505866741879963E+00    9.2035146029714454E+00    1.3362117059445492E+01
O    8.3575432198007906E+00    6.9217933118830521E-01    8.6691041205661925E+00
H    8.3103150119269991E+00    1.0101304192295400E+01    9.2764713607330354E+00
H    7.4162705925623094E+00    1.0057570721030999E+00    8.5089588849050468E+00
O   -6.6319474143826240E-01    8.3543607666989654E+00    1.2138699923429929E+01
H    1.5128089851943849E-01    8.8246277521796817E+00    1.2403295358580449E+01
H    9.7232607558991795E+00    7.3291082216197774E+00    1.2061950313048740E+01
O    4.0838328217981239E+00    9.7278140979792429E+00    8.9810557930612589E+00
H    3.7954478534263223E+00    9.6387083327054217E+00    8.0517257942025182E+00
H    4.7424277397242953E+00    2.6613576689193996E-01    8.9190051807306130E+00
O    2.5410600336888929E+00    5.0974995030508339E+00    1.0361346238321214E+01
H    3.3509224625719702E+00    5.3745411231478846E+00    9.7870052862950381E+00
H    1.7561968413621036E+00    5.5620039111264674E+00    9.9349242952607906E+00
O    5.0109058330962766E+00    7.5471259659097889E+00    2.0592747054565560E+01
H    4.8369768937535067E+00    7.6503611467005213E+00    1.9593953601055702E+01
H    4.7019212229853400E+00    8.5149685422821335E+00    2.0740729791434120E+01
O    9.7980219559859396E+00    9.5585012575216730E+00    1.6163009261132881E+01
H    4.2374097631180552E-01    9.9264034193353314E+00    1.5933687606861350E+01
H    9.1128278946440897E+00   -1.5097806708831771E-01    1.5580646596974308E+01
O    8.3702089986910853E+00    8.9942056092673961E-01    1.8202921664318168E+01
H    7.6860716994104923E+00    1.3801867288322436E+00    1.7712035489454937E+01
H    9.0803706562160897E+00    7.4354394506475940E-01    1.7574952354855029E+01
O   -8.2409736632255093E-01    2.2479236117054398E+00    1.0343132312948914E+01
H    8.8069664667722893E+00    1.8745643160084600E+00    9.6588304993516587E+00
H    4.5363047380838892E-02    2.3674086186000212E+00    9.8599406906386911E+00
O    2.2859792344414580E+00    1.6486128512567364E+00    2.0967160980682873E+01
H    2.5945974015501583E+00    1.9742079131984165E+00    2.1842048669881589E+01
H    1.8791128485567832E+00    2.3997491471837864E+00    2.0563650881148327E+01
O    8.3373601542184996E+00    8.5778819544246154E+00    9.7569478010492485E+00
H    7.3881445363490093E+00    8.3024354750194753E+00    9.8685331093365800E+00
H    8.7793223514501140E+00    8.5760624394246161E+00    1.0620352183013990E+01
O    4.5919252055539506E-01    6.3875811064081054E+00    9.1835202369441689E+00
H   -3.7563328655886030E-01    6.3599371700558534E+00    8.6419171151021441E+00
H    7.0442779198947469E-01    7.3576021898626545E+00    9.2671396016552006E+00
O    9.0372112555718651E+00    1.7689487503815660E+00    1.2934796147231303E+01
H    9.3451848499341565E+00    2.0896765946424365E+00    1.2028027287478121E+01
H   -5.0975769584677655E-01    1.7646031925706722E+00    1.3668055013493751E+01
O    6.9281066093064529E+00    1.8774938408219719E+00    1.5879555186177651E+01
H    6.6218621192566776E+00    1.0513017186154567E+00    1.5424613253675158E+01
H    6.1555330898480056E+00    2.4569351489462248E+00    1.5634094034772550E+01
O    6.9893090534226756E+00    6.4666098391600366E+00    1.4109688015050287E+01
H    7.2792289478794414E+00    5.5880971263040964E+00    1.3829988858085160E+01
H    7.8292593110570508E+00    6.8185319515717531E+00    1.4567622218591904E+01
O    7.4007228649508701E+00    8.8644144983588014E+00    1.9212885565655636E+01
H    7.6686771299089287E+00    9.6973414612569666E+00    1.8701943044594309E+01
H    6.4564446508669100E+00    8.7095540141311378E+00    1.8916239295760377E+01
O    7.2213043996661526E+00    6.5121101090536895E+00    2.1217215367973708E+01
H    6.4533902246686825E+00    6.9694954997817957E+00    2.0821111497527099E+01
H    7.3615471524936478E+00    6.8429474491999702E+00    2.2142273799191116E+01
O    2.8679328437200522E+00    5.0855873153897067E+00    6.4213491886707041E+00
H    1.9464051840756453E+00    4.5952866453013188E+00    6.4827890743223380E+00
H    2.9315202348784228E+00    4.9854638491364831E+00    5.4006200557549811E+00
O    1.1038567552955243E+01    4.8992888920450053E+00    1.5295633097737619E+01
H    8.7329606899558543E-01    4.4605032122997148E+00    1.4401919835175645E+01
H    1.0190640404548503E+01    4.4388224329202828E+00    1.5660144648039168E+01
O    3.2928919641908672E+00    1.3034211349133116E+00    1.1784782488657930E+01
H    2.9662465562986902E+00    1.5850548678523793E+00    1.0827506346120781E+01
H    4.2802538085502482E+00    1.1431162127435430E+00    1.1806593979110700E+01
O    5.7162684080739101E+00    7.4302712194933997E+00    6.4835384798657074E+00
H    6.7131444482125469E+00    7.3040538981839349E+00    6.6772962396887356E+00
H    5.5480112838234037E+00    7.0371864892704119E+00    5.5918280746413256E+00
O    8.9046955826729217E+00    6.7219444164442352E+00    1.8293034208625965E+01
H    8.9684490867510220E+00    6.8052596906086560E+00    1.7292744540223175E+01
H    8.4167912109600049E+00    7.5496064116813750E+00    1.8541579653750631E+01
O    1.0598590342154584E+00    2.0799265405921865E+00    1.7596629909979345E+01
H    1.8267918904422458E+00    2.0915617353719824E+00    1.8202474021452133E+01
H    1.0578070667330842E+01    2.6092841523510222E+00    1.7961043471656318E+01
O    5.6837263742948654E+00    1.8861864276570317E+00    8.9784408745006399E+00
H    5.4604463302368034E+00    2.4102335183626273E+00    8.1304601539967614E+00
H    5.6170783224178775E+00    2.4803871793645293E+00    9.7520507120167128E+00
O    3.4078642271461006E+00    9.5515543729783410E+00    6.3938574159551571E+00
H    3.9368459770414872E+00    9.3876225863789031E+00    5.5855977593171682E+00
H    2.7139997426477684E+00    8.7884560830035845E+00    6.4142002005275973E+00
O    3.6943766640647087E+00    5.0662278625576738E+00    2.1138417468443290E+01
H    3.6413799826148368E+00    6.0278524350433411E+00    2.1373529982416983E+01
H    2.8046561364607800E+00    4.8218192699618800E+00    2.0784161279943476E+01
O    5.5011548790392331E+00    7.9661806639729580E+00    1.2510596680435343E+01
H    6.1147912624610417E+00    7.4035276806104315E+00    1.3097862550401096E+01
H    4.5535717492727992E+00    7.6719862128896930E+00    1.2590781656553020E+01
K    9.6635933625458381E-01    1.0223074161569961E+00    6.2470073024085284E+00
O    1.4067537832967763E+00   -1.7349062942115723E-01    1.3035385838967215E+01
H    1.2991736004549046E+00    2.8189482561379925E-01    1.3891017363370196E+01
H    2.1956288746686758E+00    1.6835465963742155E-01    1.2538569805818650E+01
O    9.2605334949942328E+00    7.0957298183532584E+00    1.5601787274796054E+01
H    9.7689877202790640E+00    7.9723531142141786E+00    1.5675223834889369E+01
H    9.8956314000380114E+00    6.3573403062963010E+00    1.5294840547064155E+01
O    1.8026215382287514E+00    7.2050891408644206E+00    2.1152498330768488E+01
H    1.6730540703246977E+00    8.2014351408976349E+00    2.1428616399943401E+01
H    9.5933810431205946E-01    6.7288827875045962E+00    2.1371841116998191E+01
O    2.5379201222203767E+00    6.9769039220742046E+00    1.5005357842435606E+01
H    2.5676312056808936E+00    7.2646010506022805E+00    1.4046734498958868E+01
H    1.9892979591127866E+00    6.1874717096155187E+00    1.5028023935577112E+01
O    2.1705452215787204E+00    2.4881567148101440E+00    9.3271835021303495E+00
H    2.3289282839982048E+00    3.3352519850421456E+00    9.8750404232109616E+00
H    2.9823404462418708E+00    2.5823114363855342E+00    8.7315792979454017E+00
O    1.1521195843755465E+00    3.7994984287169675E+00    1.2806755730553958E+01
H    2.1152950868179095E+00    3.8297731044225976E+00    1.2672662549694577E+01
H    8.9061005563941431E-01    4.6309721399635988E+00    1.2252535336998363E+01
O    8.8602890038448781E+00    9.6846967328754356E+00    6.1732929501745577E+00
H    8.0627587160058170E+00    1.0021348374043457E+01    6.5814993785384805E+00
H    8.6831252567003716E+00    9.6820761524026633E+00    5.2237726222866261E+00
O    6.7928986782084144E-01    3.6970599154601942E+00    6.1440907895481374E+00
H   -1.3460457595642461E-01    3.6246520353529226E+00    6.7498116448927910E+00
H    3.5553351287441187E-01    3.8579385777271651E+00    5.1846144309220614E+00
O    1.6399556586619770E+00    7.1488970668436096E+00    1.8584750323456991E+01
H    1.7710559716588383E+00    7.1691924307087262E+00    1.9596184593865036E+01
H    6.4773817132476763E-01    7.2494812948760723E+00    1.8423046459534170E+01
K    8.4028529055032735E+00    2.6802746072245194E+00    2.0457745734776640E+01
O    5.7803848673515290E+00    1.7497351120972418E+00    1.9243932266367260E+01
H    5.3655101493779895E+00    2.6299442470563594E+00    1.9251062534565623E+01
H    5.5849360407999509E+00    1.2317532194394978E+00    2.0038041053879574E+01
O    8.8337186387377198E+00    4.4853321843988496E+00    7.9928298157556235E+00
O    6.5980921724913850E+00    4.4261448967412180E+00    7.2528759801982368E+00
     &END COORD
     &VELOCITY
           1.9763236980337050E-05    2.8791093196155558E-05    1.0671711825901926E-05
          -5.9117146002066275E-05    1.9233799880021058E-05   -7.9509983225572534E-05
          -6.0590054879500881E-05   -9.5187841608056813E-05    5.0661368054159363E-05
          -4.2687966477488321E-06   -3.5749997421131046E-05    3.8150532049564147E-05
          -1.3735060929961687E-04    3.2588432115908316E-05    5.2058810387400728E-05
          -1.1111682196744451E-04    1.0413190462988285E-04    8.8000768943357133E-05
           9.9078247751344562E-05   -3.4009664120308496E-05   -1.8474655115470000E-07
           1.2236782183466316E-04   -8.7092834277835155E-05   -3.9580808228189823E-05
           1.4299693740208986E-05    4.7692610693439540E-05    9.9844294542556565E-05
           4.2317532058799452E-05   -6.0445746485963153E-05    4.4649520730992254E-05
          -4.7944220962783392E-06   -5.8803207670755374E-05   -1.3811573049713445E-04
          -4.3258103949391898E-05    2.8738164299076705E-05   -1.3355670224578017E-04
           5.9892137348249001E-05   -4.3344589577270221E-05    1.6203174668482395E-04
          -8.7307176651105957E-05   -7.3658806507298095E-06    3.9960207078820654E-05
          -5.3539132423338554E-05   -8.7838286548023179E-05   -6.6773529191576294E-05
           2.8458289409826444E-05    1.5929565620448925E-05    3.9157022204614962E-05
           4.3706424115636007E-05    8.1841888191368670E-05    3.2009790029954045E-05
          -3.7847992928207454E-05    1.3954092424302248E-05   -1.0652589044510247E-05
          -7.5803830142156709E-05   -4.5560863146673531E-05    9.0947938223792801E-05
          -2.3668923099753101E-05    1.4589003652154916E-04    4.0838195498756028E-06
          -6.9242129064749446E-05   -9.5509570168939009E-05    8.1748873431169571E-05
           7.0790654484848809E-05    5.1375000572159360E-05    7.7765805988086519E-05
           1.8749356977861275E-05   -4.0450851187354847E-05    3.5717824871627875E-05
          -2.5603649745964712E-05    1.7222336554223187E-04   -6.0764631660178329E-05
           5.9549453646510211E-05   -4.7371488154857795E-05    5.8014976009464984E-05
          -1.2105176474089442E-04    7.8347119663738297E-05   -6.0844673489562936E-05
          -8.1632567849596535E-05   -5.8457061030131618E-05    2.1629452239781887E-05
          -1.5442657873427211E-04   -1.1627982240533389E-04    3.3932518105967769E-05
          -3.1814084711341908E-05    8.3025393815435055E-05   -5.2960196242012421E-05
          -1.9690738336960602E-07   -3.3271991387755291E-06    1.4144634518092149E-06
           6.2590819248938147E-05    9.4032088987313107E-05    8.3925611208483870E-05
           7.7976074828207094E-05    7.5628023668538805E-06   -8.6977310568654023E-06