 # Version information for this restart file 
 # current date 2026-02-07 15:00:38.883
 # current working dir /home/shaofl/projects/03_CuAg_SAA/explicit/1K/co2/adsorption
 # Program compiled at                              Wed Jun 16 17:08:34 CST 2021
 # Program compiled on                                                       mgr
 # Program compiled for                                       Linux-x86-64-intel
 # Source code revision number                                       git:e635599
 &GLOBAL
   PRINT_LEVEL  LOW
   PROJECT_NAME slowgrowth
   RUN_TYPE  MD
 &END GLOBAL
 &MOTION
   &MD
     ENSEMBLE  NVT
     STEPS  8000
     TIMESTEP     9.9999999999999989E-01
     STEP_START_VAL  500
     TIME_START_VAL     4.9999999999999591E+02
     ECONS_START_VAL    -4.3014740091867043E+03
     TEMPERATURE     3.0014999999999998E+02
     &THERMOSTAT
       TYPE  NOSE
       REGION  GLOBAL
       &NOSE
         LENGTH  3
         TIMECON     2.2237606346543473E+01
         &COORD
              -6.5789047757054728E-02   -1.9599660715239033E+00    1.7416770967070765E+00
         &END COORD
         &VELOCITY
               3.7130725212523570E-05    1.5371098581174448E-04   -7.7820711028031521E-04
         &END VELOCITY
         &MASS
               6.4750332819943212E+05    8.0335400521021347E+02    8.0335400521021347E+02
         &END MASS
         &FORCE
               3.5423918242489201E-08   -7.1964255629064404E-08   -1.1595619368450406E-06
         &END FORCE
       &END NOSE
     &END THERMOSTAT
     &AVERAGES  T
       &RESTART_AVERAGES
         ITIMES_START  1
         AVECPU     2.3578673504233358E+01
         AVEHUGONIOT     0.0000000000000000E+00
         AVETEMP_BARO     0.0000000000000000E+00
         AVEPOT    -4.3018560589387844E+03
         AVEKIN     3.8182052281417289E-01
         AVETEMP     2.9917925844606293E+02
         AVEKIN_QM     0.0000000000000000E+00
         AVETEMP_QM     0.0000000000000000E+00
         AVEVOL     1.8637835790266097E+04
         AVECELL_A     1.9320371010009545E+01
         AVECELL_B     1.9320371010009545E+01
         AVECELL_C     4.9930343883104541E+01
         AVEALPHA     9.0000000000000000E+01
         AVEBETA     9.0000000000000000E+01
         AVEGAMMA     9.0000000000000000E+01
         AVE_ECONS    -8.3403755798775969E-01
         AVE_PRESS     0.0000000000000000E+00
         AVE_PXX     0.0000000000000000E+00
       &END RESTART_AVERAGES
     &END AVERAGES
     &PRINT
       &ENERGY  SILENT
       &END ENERGY
     &END PRINT
   &END MD
   &CONSTRAINT
     &COLLECTIVE
       COLVAR  1
       INTERMOLECULAR  T
       TARGET     1.0185623856253175E+01
       TARGET_GROWTH    -2.2855144621117898E-05
     &END COLLECTIVE
     &LAGRANGE_MULTIPLIERS  SILENT
       COMMON_ITERATION_LEVELS  1
       FILENAME constraint_force.dat
     &END LAGRANGE_MULTIPLIERS
   &END CONSTRAINT
   &PRINT
     &TRAJECTORY  SILENT
       &EACH
         MD  5
       &END EACH
     &END TRAJECTORY
     &VELOCITIES  SILENT
       &EACH
         MD  5
       &END EACH
     &END VELOCITIES
     &RESTART  SILENT
       &EACH
         MD  10
       &END EACH
     &END RESTART
   &END PRINT
 &END MOTION
 &FORCE_EVAL
   METHOD  QS
   &DFT
     BASIS_SET_FILE_NAME BASIS_MOLOPT
     POTENTIAL_FILE_NAME GTH_POTENTIALS
     WFN_RESTART_FILE_NAME ./1-RESTART.wfn
     UKS  T
     CHARGE  0
     &SCF
       MAX_SCF  60
       EPS_SCF     1.0000000000000001E-05
       SCF_GUESS  ATOMIC
       &OT  T
         MINIMIZER  BROYDEN
         BROYDEN_BETA     9.0000000000000002E-01
         BROYDEN_SIGMA     1.0000000000000001E-01
         LINESEARCH  2PNT
         PRECONDITIONER  FULL_ALL
       &END OT
       &OUTER_SCF  T
         EPS_SCF     1.0000000000000001E-05
         MAX_SCF  50
       &END OUTER_SCF
       &PRINT
         &RESTART_HISTORY  SILENT
           ADD_LAST  NUMERIC
           FILENAME = MD_RESTART_HISTORY.wfn
           BACKUP_COPIES  5
           &EACH
           &END EACH
         &END RESTART_HISTORY
       &END PRINT
     &END SCF
     &QS
       EPS_DEFAULT     9.9999999999999998E-13
       EPS_PGF_ORB     9.9999999999999995E-07
       EXTRAPOLATION  ASPC
       EXTRAPOLATION_ORDER  2
     &END QS
     &MGRID
       NGRIDS  5
       CUTOFF     4.5000000000000000E+02
       REL_CUTOFF     6.0000000000000000E+01
     &END MGRID
     &XC
       DENSITY_CUTOFF     1.0000000000000000E-10
       GRADIENT_CUTOFF     1.0000000000000000E-10
       TAU_CUTOFF     1.0000000000000000E-10
       &XC_GRID
         XC_SMOOTH_RHO  NN10
         XC_DERIV  NN10_SMOOTH
       &END XC_GRID
       &XC_FUNCTIONAL  NO_SHORTCUT
         &PBE  T
         &END PBE
       &END XC_FUNCTIONAL
       &VDW_POTENTIAL
         POTENTIAL_TYPE  PAIR_POTENTIAL
         &PAIR_POTENTIAL
           R_CUTOFF     1.0000000000000002E+01
           TYPE  DFTD3
           PARAMETER_FILE_NAME dftd3.dat
           REFERENCE_FUNCTIONAL PBE
         &END PAIR_POTENTIAL
       &END VDW_POTENTIAL
     &END XC
     &PRINT
       &MULLIKEN  SILENT
         FILENAME =CHARGE.mulliken
         &EACH
           MD  5
         &END EACH
       &END MULLIKEN
     &END PRINT
   &END DFT
   &SUBSYS
     &CELL
       A     1.0223900000000002E+01    0.0000000000000000E+00    0.0000000000000000E+00
       B     0.0000000000000000E+00    1.0223900000000002E+01    0.0000000000000000E+00
       C     0.0000000000000000E+00    0.0000000000000000E+00    2.6422000000000001E+01
       PERIODIC  XYZ
       MULTIPLE_UNIT_CELL  1 1 1
     &END CELL
     &COORD
Cu    9.9274620021755826E+00    1.4806261571397245E-01    2.5990403477808751E+01
Cu    2.1302545263118695E+00    2.7774200302568346E+00    2.6102235282993647E+01
Cu    1.0012212744058999E+01    2.5391351671171636E-01    3.2614694620033533E+00
Cu    2.2905813873126868E+00    2.7584299201268787E+00    3.2155725293560997E+00
Cu    2.2445215365086861E+00    2.2702525618506134E-01    2.6020664272872917E+01
Cu    9.7770674817583565E+00    2.7900399978355579E+00    2.6152405497782031E+01
Cu    2.2202050911317603E+00    2.9792125708686185E-01    3.2222816438095836E+00
Cu    9.9907549259624115E+00    2.9055081321277951E+00    3.1959572860580403E+00
Cu    3.6587647007084674E+00    1.4599801332822071E+00    2.4252336896589995E+01
Cu    8.7823749837903586E-01    3.9917225884275132E+00    2.4241706193581873E+01
Cu    3.4862600362786704E+00    1.5796199782928597E+00    1.4273527456833510E+00
Cu    1.0388467593898436E+00    3.9753866937699978E+00    1.3692825191266393E+00
Cu    1.0051684755503623E+00    1.5739829054763947E+00    2.4201614121323942E+01
Ag    3.4689591338416923E+00    4.1321283354975833E+00    2.4002854268542624E+01
Cu    8.1485368653298051E-01    1.5513357698772836E+00    1.3623369424356049E+00
Cu    3.5238927819213450E+00    4.0107394658487028E+00    1.4342909411649893E+00
Cu    4.9463290176120767E+00    2.6038803352175638E-01    2.5969872789605645E+01
Cu    7.2717920065748398E+00    2.7458661440538350E+00    2.6140992494880898E+01
Cu    4.8473869368617688E+00    2.9699727998595149E-01    3.2174941271029280E+00
Cu    7.4571522506313084E+00    2.8521437869533979E+00    3.3249078591555503E+00
Cu    7.3295309157095270E+00    2.0435724014954482E-01    2.6028102010076985E+01
Cu    4.8384095297065475E+00    2.9149658575407162E+00    2.5962772486966891E+01
Cu    7.4000283044488766E+00    2.3600492968546480E-01    3.1687298394173236E+00
Cu    4.7647737378965305E+00    2.8824831311035237E+00    3.2515148859037191E+00
Cu    8.6585241781352202E+00    1.5930255458813822E+00    2.4422490235512942E+01
Cu    6.2365282664549486E+00    4.2017908444632557E+00    2.4136720580315494E+01
Cu    8.4776083950232710E+00    1.4520870442663616E+00    1.4512349826353381E+00
Cu    6.1530390030210693E+00    4.1182555858116023E+00    1.4776275602969675E+00
Cu    6.1524012463034694E+00    1.5423852224541470E+00    2.4200425316093604E+01
Cu    8.6429694719275627E+00    4.0821930902229591E+00    2.4223431376836306E+01
Cu    5.9928627873202602E+00    1.4276075940712418E+00    1.4587039695170056E+00
Cu    8.7133973702308491E+00    4.0902519819810887E+00    1.4966260006459560E+00
Cu    9.9217220145910421E+00    5.3308127459872816E+00    2.6016794982733835E+01
Cu    2.3079849426414607E+00    7.8482513178734736E+00    2.6078038979915597E+01
Cu    9.9550302947713316E+00    5.2302250616256867E+00    3.2624164363212951E+00
Cu    2.4361718887438912E+00    8.0833635158219312E+00    3.2467265385699755E+00
Cu    2.1835053817998378E+00    5.2203851367922454E+00    2.6113184463380190E+01
Cu    1.0108734932601822E+01    7.8043330022586197E+00    2.6060685913861168E+01
Cu    2.3113954381154569E+00    5.3387351966856347E+00    3.0954484022820332E+00
Cu    9.9922229473633450E+00    7.9153671840861177E+00    3.2453536157529395E+00
Cu    3.5269194611049093E+00    6.7783635197787762E+00    2.4424835174417503E+01
Cu    1.0151517878650613E+00    9.2081188597048769E+00    2.4353874545192646E+01
Cu    3.5230411787240903E+00    6.6931661222999281E+00    1.3627538349423527E+00
Cu    1.0678786067614534E+00    9.2379946722718866E+00    1.5264284025173980E+00
Cu    1.0026523267943781E+00    6.5732170569842285E+00    2.4167409828587935E+01
Cu    3.7052969272145098E+00    9.2511910322654956E+00    2.4291929415744285E+01
Cu    1.1118929378716140E+00    6.6801430671578323E+00    1.5835539257530120E+00
Cu    3.5857680465016015E+00    9.2740760390472978E+00    1.3241240558044651E+00
Cu    4.8412112433607337E+00    5.3604875763653874E+00    2.6064884708459974E+01
Cu    7.4476337285475278E+00    7.8359387733919776E+00    2.6147780967853436E+01
Ag    4.8381286116474227E+00    5.4403233644207125E+00    3.4019104205572792E+00
Cu    7.3576127207775217E+00    7.9060133074786956E+00    3.4629106478302170E+00
Cu    7.3424300442399941E+00    5.2974372666315661E+00    2.6047051681883488E+01
Cu    4.8726229940210075E+00    7.9936335324550436E+00    2.6108496401548297E+01
Cu    7.5896011198914834E+00    5.3799177518511163E+00    3.1830487990315968E+00
Cu    5.0707200046705241E+00    8.0045532839848086E+00    3.1637086560124414E+00
Cu    8.7198183827008631E+00    6.7269002409197718E+00    2.4347371448686154E+01
Cu    6.1276396816145464E+00    9.1739642112322617E+00    2.4187614137867456E+01
Cu    8.6963614964694624E+00    6.7174944386473392E+00    1.3658411394743826E+00
Cu    6.1540377671522135E+00    9.2023672299202346E+00    1.4063226619999285E+00
Cu    6.1319128787394392E+00    6.6518370350351530E+00    2.4330821575532482E+01
Cu    8.5671465098712680E+00    9.2610909636586651E+00    2.4277626006249914E+01
Cu    6.1087927753762932E+00    6.5915833795977861E+00    1.4334590628193704E+00
Cu    8.8494728664201112E+00    9.1296124322369270E+00    1.4451221679457937E+00
O    6.1918259093721453E+00    9.0256855821021287E-01    5.9601818718023427E+00
H    5.8608523566991400E+00    1.0241206395548057E+01    5.6080672919496726E+00
H    6.4064898102951586E+00    1.4454910527049096E+00    5.1140468870077473E+00
O    8.7034312070269024E+00    6.9001790867046928E+00    6.4588887026659743E+00
H    8.9126960875376451E+00    7.9191928855776448E+00    6.4558620438807219E+00
H    8.6123175216078955E+00    6.7092565629829899E+00    5.4284174100226439E+00
O    2.2436889073769888E+00    9.6392763899175300E+00    1.7004285574258567E+01
H    2.0058816740089060E+00    9.2747690869472841E+00    1.7868235832735515E+01
H    2.3992135148573808E+00    8.9562480439889214E+00    1.6270266014677855E+01
O    5.1153213356844383E+00    4.8382685525860705E+00    9.2281200721791965E+00
H    5.5265200671324566E+00    4.3674097544571691E+00    8.4440859739217284E+00
H    5.5882428741314314E+00    5.7409354441139824E+00    9.3481254235619300E+00
O    4.1298960746261448E+00    2.2132996689508357E+00    7.2195644894349407E+00
H    4.0532093567063416E+00    3.2044128682277018E+00    6.9986436855817411E+00
H    4.9174366563119598E+00    1.8939672880976859E+00    6.6768203857870816E+00
O    3.3190700992962205E+00    3.6063723824657234E+00    1.2885576568041111E+01
H    3.5730079394579612E+00    2.7159166118819824E+00    1.2627006978004722E+01
H    3.7120786783958795E+00    3.6427453537789054E+00    1.3781268568085535E+01
O    1.8655770972910182E+00    5.1341094116260999E+00    1.7577735273065358E+01
H    1.2292566375923175E+00    5.0613837573794225E+00    1.6865201886386505E+01
H    1.7679898142598423E+00    6.0832288530054397E+00    1.8003394757702626E+01
O    8.2023348659487318E+00    1.0337491774600934E+01    2.1455658095664859E+01
H    7.8912889126468215E+00    9.7609891435679046E+00    2.0724601876777818E+01
H    7.7116257493182854E+00    1.0014167460992770E+01    2.2274493079634965E+01
O    7.7518552153453344E+00    4.8819896515294188E+00    1.8466138572358645E+01
H    8.0930351697178171E+00    5.7124813248810744E+00    1.8933225279915280E+01
H    6.8062679010296545E+00    4.9598120794109191E+00    1.8544901574417715E+01
O    3.0286935806409043E+00    7.5787712318779974E+00    1.2328721141768517E+01
H    2.3234600638715466E+00    6.8355550286939639E+00    1.2286427290585472E+01
H    2.8373398503513161E+00    8.2945198872156851E+00    1.1615681078543764E+01
O    8.9130554690234636E+00    3.8251750634508785E+00    1.6286272848011350E+01
H    8.3390072234205128E+00    3.0967478672112074E+00    1.5867774996865622E+01
H    8.3668978978027440E+00    4.4626080648916195E+00    1.6832021830182967E+01
O    6.0034621607371130E-01    9.6290105714249652E+00    2.1555183520228816E+01
H    9.9136127690485605E+00    1.0025637701687707E+01    2.1642482982907541E+01
H    1.1057977150890237E+00    6.6390414509133786E-02    2.1059756014595589E+01
O    4.6373267337890614E+00    5.3606738192859069E+00    1.8989596041644365E+01
H    4.0445126381981629E+00    5.3759440963326064E+00    1.9823813368062378E+01
H    3.9977206932882110E+00    5.3219292787684429E+00    1.8251122278351193E+01
O    5.6487121187666016E+00    3.6966400063242841E+00    1.1608217212975376E+01
H    5.0325185455089629E+00    3.8855813957656995E+00    1.2345772825724302E+01
H    5.4405276950580586E+00    4.4038234471662001E+00    1.0902929057473640E+01
O    4.9090353076444373E+00    5.8580829856545131E+00    1.5925868829906969E+01
H    5.5788142141280943E+00    5.9035782658698475E+00    1.5246629347315345E+01
H    4.1926937041913845E+00    6.4486151698943530E+00    1.5576637437409364E+01
O    8.0813677396019319E+00    4.1527187156054941E+00    1.2235773984459446E+01
H    7.1614177161031414E+00    3.9749428272043916E+00    1.1916305017301784E+01
H    8.6174379382129391E+00    3.3700067708761776E+00    1.2350852655951776E+01
O    5.3710722003077054E+00    8.1556333433938768E+00    1.7718270350777253E+01
H    5.1409028931081231E+00    8.6538598241028080E+00    1.6900922999551465E+01
H    5.5605147584904620E+00    7.2394452491792416E+00    1.7319223702428200E+01
O    5.9993754549732623E+00    7.1597731199190182E+00    9.7897701315810952E+00
H    5.8906119382690694E+00    7.2132893561553999E+00    1.0755178523253628E+01
H    5.3611291897432372E+00    7.8164847651153933E+00    9.5021977860986269E+00
C    8.2880927981134729E+00    4.2102108613313280E+00    7.3562334146796440E+00
O    6.0851648248619350E+00    8.9061285428514427E+00    1.5369171778110474E+01
H    6.9747020376329187E+00    8.5541875371762028E+00    1.5460226069862086E+01
H    5.8411126026108704E+00    8.8584866603517032E+00    1.4447652160270680E+01
O    2.3706751138909605E+00    8.8413291323377585E+00    9.8276485812887895E+00
H    3.1597540382727738E+00    9.2121129182194608E+00    9.1845527738053114E+00
H    1.8338653723250569E+00    9.6692465360474209E+00    9.9651155642040692E+00
O    4.3724909681599184E+00    4.9625906600989578E-01    2.1250099294894362E+01
H    4.6501652045351936E+00    5.2334853647144763E-01    2.2176696144818095E+01
H    3.4761796370072302E+00    9.2555115024676970E-01    2.1198159003614276E+01
O    9.0672237203945762E+00    5.6728166989378277E+00    2.1431297578129701E+01
H    9.0482950501148149E+00    5.6308126737015369E+00    2.2456219565710178E+01
H    8.2900748313042882E+00    6.2628318684500215E+00    2.1289711143016532E+01
O    1.3513404664022006E+00    2.0401338431915144E+00    1.4792404069972548E+01
H    2.2394867061967823E+00    2.5035609676020276E+00    1.4822679707193975E+01
H    9.5145139619718566E-01    2.0404116166839792E+00    1.5680037840951291E+01
O    9.4728988036930417E+00    6.0715317160317035E+00    1.1395411071247446E+01
H    8.8575335961960882E+00    5.2803317312604365E+00    1.1535124634507374E+01
H    9.7074400401143190E+00    6.3249623921060429E+00    1.0514301895786835E+01
O    3.9361994871514976E+00    3.1596253876708555E+00    1.5489093994873002E+01
H    3.9517107828611842E+00    4.1096587654843244E+00    1.5840745601352864E+01
H    3.7848817465521560E+00    2.6001626114536545E+00    1.6331516076864872E+01
O    6.3099844665681788E+00    4.4266811751391764E+00    2.1670442698428126E+01
H    5.3048978221022347E+00    4.4682119409063779E+00    2.1681458299405236E+01
H    6.5047714666808982E+00    5.4277160936213180E+00    2.1609712186655223E+01
O    9.0921166076386839E-01    4.1561121693926593E+00    2.0093969309501855E+01
H    3.3642440147785613E-01    4.6678841965995526E+00    2.0636159065633727E+01
H    1.0609401672431662E+00    4.5184787296200462E+00    1.9206185806651426E+01
O    6.3787904380953799E+00    2.1079447934078782E-01    1.2583975767033861E+01
H    7.2644766064441990E+00    3.0953798197726401E-01    1.3141261800243376E+01
H    6.2678892306512033E+00    9.4692233680865314E+00    1.2744814750153482E+01
O    3.1878488445300253E+00    1.8616605967305406E+00    1.7652377651039412E+01
H    3.0486728295981385E+00    9.1593134215193794E-01    1.7491971071628388E+01
H    3.8571201312875876E+00    1.8980186147096747E+00    1.8430198162931919E+01
O    1.9504772170093305E+00    7.3248507639500415E+00    6.3897523254301172E+00
H    1.2966916563683919E+00    7.3669889129242927E+00    5.6988814555645710E+00
H    2.4341549096025785E+00    6.4809588518238739E+00    6.2195802799261362E+00
O    8.7604323239534452E+00    3.7491167689824934E-01    1.3715146252872588E+01
H    9.4074278147964581E+00    1.0140292317234982E+00    1.3122156702265823E+01
H    9.0311868302097142E+00    9.6709383454101054E+00    1.3336315646526907E+01
O    8.7634451123531907E+00    9.1690459375094657E-01    8.7912752848366917E+00
H    8.4896204475333672E+00    1.0260377848640132E+01    9.1680243113536264E+00
H    8.0099224845041395E+00    1.4316771180427168E+00    9.0781485330736693E+00
O   -6.5887941799664840E-01    8.3096312858381225E+00    1.2901400664112277E+01
H    3.1403925304024649E-01    8.3090352329474371E+00    1.2981772400702306E+01
H    9.2969046945806912E+00    7.4562259187961493E+00    1.2384592648358712E+01
O    4.5220604807276903E+00    9.4075830114431369E+00    8.4449229419594758E+00
H    4.2996127519891028E+00    9.5537679993457214E+00    7.5149577150794080E+00
H    5.0698033642829605E+00   -8.4455340642596327E-02    8.8695465627749090E+00
O    2.3704213025107017E+00    4.8772734534986260E+00    8.8861308528699023E+00
H    3.0460313943549044E+00    5.4487833412878066E+00    8.4734395011351591E+00
H    1.6091960467434996E+00    5.4176304214711708E+00    9.1283113408248937E+00
O    4.3253087616952621E+00    7.9143248568015352E+00    2.0381973926942063E+01
H    4.6396734127572126E+00    8.1628879016840141E+00    1.9450845992087672E+01
H    4.2870942879028551E+00    8.7999401159643043E+00    2.0765991328662611E+01
O    9.1925135381809149E+00    1.0128362189296270E+01    1.6190825857812946E+01
H   -8.5171566955652922E-02    1.0221828100039023E+01    1.6466784691739214E+01
H    9.0008535539801020E+00    2.3223170044484803E-01    1.5259547481407857E+01
O    7.8880208910998686E+00    1.1353033629806084E+00    1.8233440458657629E+01
H    7.1986743223812644E+00    1.4728222961870532E+00    1.7522476707429359E+01
H    8.4947160265642765E+00    7.2503948839853705E-01    1.7583887168751737E+01
O    9.7435016774199756E-01    1.2071972474307724E+00    1.0155092985602387E+01
H    1.0504112882767274E+01    1.2695613590929240E+00    9.4922648865756631E+00
H    1.7594465934217591E+00    1.7312072508210454E+00    9.8976841753338327E+00
O    1.9097939280152263E+00    1.7456475597539169E+00    2.0974155124620967E+01
H    1.7607469527398454E+00    1.8990149422441269E+00    2.1955367931990388E+01
H    1.5970132769469860E+00    2.6210129135909535E+00    2.0589199452327925E+01
O    8.3047853284455346E+00    8.8130839634577391E+00    9.9202196095513404E+00
H    7.5854190954013347E+00    8.1245750408535944E+00    1.0010883907704825E+01
H    8.8942006225468191E+00    8.8377089770902284E+00    1.0681617268511163E+01
O    4.7950498093379279E-01    6.8160141646296681E+00    9.2059631819934555E+00
H   -4.7155987647793197E-02    6.8373072936350807E+00    8.3589480238648886E+00
H    1.0999873080382747E+00    7.6305481530527395E+00    9.2192338988070333E+00
O    1.0046790634702310E+01    2.1175317747654123E+00    1.2438725826741868E+01
H    1.0555442243574646E+01    1.6684330099987335E+00    1.1678896916627862E+01
H    4.2825195386296205E-01    2.2864393548154207E+00    1.3171736912360911E+01
O    6.6389899222310671E+00    2.0214322145949932E+00    1.5786617251463490E+01
H    6.5107671486701406E+00    1.1338135237591929E+00    1.5464358067575516E+01
H    5.8731259257422170E+00    2.5765072807998486E+00    1.5477518895670991E+01
O    7.1597538829437326E+00    5.9026153421577554E+00    1.4057340333006831E+01
H    7.5650563498085814E+00    5.0983468356324479E+00    1.3574222829848242E+01
H    7.6637152997051974E+00    6.0918459000680167E+00    1.4815935131897620E+01
O    7.3604099047266400E+00    9.1455532592447693E+00    1.9328166706736909E+01
H    7.4682338990804702E+00    1.0044219340742826E+01    1.8854101279005000E+01
H    6.6125870827021425E+00    8.7888908014314708E+00    1.8730808226821999E+01
O    6.7679016013979556E+00    7.1381331738380700E+00    2.1289740783013219E+01
H    5.7988195839329730E+00    7.3220306094713044E+00    2.0983427523067885E+01
H    6.8093416199744565E+00    7.4984292688688470E+00    2.2283312207111599E+01
O    3.8379226217738909E+00    5.0103960460101460E+00    6.3295849502503962E+00
H    3.4541808879842963E+00    4.6428277993492246E+00    5.5315479095185438E+00
H    4.6699982670420255E+00    5.5226783689353764E+00    6.0393010484539893E+00
O    1.0807030470867266E+01    5.6440591096882651E+00    1.4925382630993173E+01
H    7.8591340006502908E-01    5.4658637651622142E+00    1.3964793686745557E+01
H    1.0257674563742020E+01    4.8945950839450019E+00    1.5271629161589789E+01
O    3.7818494916333916E+00    1.0112301775042032E+00    1.2313732454229994E+01
H    3.5282293200933026E+00    1.3261573693132735E+00    1.1418294478757558E+01
H    4.8191214447643800E+00    8.5536624378806980E-01    1.2288671042911682E+01
O    6.0115155475653097E+00    6.7899899640740822E+00    6.3198735596522093E+00
H    6.9856582355766417E+00    6.8294007541239363E+00    6.3490879699032572E+00
H    5.8947036204430479E+00    7.6610101793368912E+00    5.8139311431630443E+00
O    9.2158751864811137E+00    7.3638096386344332E+00    1.8914211896898941E+01
H    9.2659129328671632E+00    7.2557272888632864E+00    1.7956196569986801E+01
H    8.5907678375790049E+00    8.1711526506269561E+00    1.9076995500455322E+01
O    3.3766062836804345E-01    2.0603571433613128E+00    1.7939044614358803E+01
H    1.2984005518352681E+00    2.2994447256785437E+00    1.7892000431031292E+01
H    9.9969568415608681E+00    2.6942605516130063E+00    1.7470254510697004E+01
O    6.0827112987611862E+00    1.2593551647807135E+00    9.8238332980581546E+00
H    5.6171149338354196E+00    1.9814132814220431E+00    1.0221149680674495E+01
H    6.5409044971603008E+00    7.4321037694629144E-01    1.0552463819419776E+01
O    3.5108893201890692E+00    9.4773131500682801E+00    5.9962280045741663E+00
H    3.8461143884430671E+00    9.2556965182910602E+00    5.0658977547285620E+00
H    3.0605503998715120E+00    8.6479058236912980E+00    6.2751348382462711E+00
O    3.3369094932264374E+00    5.1281678304382972E+00    2.1313629919313723E+01
H    3.0658950351630980E+00    5.8158756279689880E+00    2.1945603436287168E+01
H    2.5159942863778690E+00    4.6749880555948984E+00    2.1054812576259554E+01
O    5.7753682767860841E+00    7.6156604205343994E+00    1.2289666877325020E+01
H    6.2071801543225344E+00    6.9165867172142201E+00    1.2842001962807029E+01
H    4.8009831162755860E+00    7.3839761134664679E+00    1.2416017401468455E+01
K    1.7204927274935269E+00    1.3138116336657686E+00    6.2385154162135033E+00
O    1.9615637084770425E+00   -5.5425163920859744E-01    1.3588002577909124E+01
H    1.5520904229665844E+00    2.6917057116422405E-01    1.3897575562454934E+01
H    2.5788808918797246E+00   -3.5379196775447508E-01    1.2867408725963855E+01
O    9.0588942440670124E+00    7.3077396126684464E+00    1.6100602697856875E+01
H    9.2075123297394175E+00    8.2654240603946825E+00    1.6028334532663234E+01
H    9.7833288379440209E+00    6.8869786148583874E+00    1.5537280094696122E+01
O    1.3156117626231114E+00    6.9609468855019232E+00    2.1937030024000087E+01
H    9.2940864680452473E-01    7.8658701510045432E+00    2.1975685699927315E+01
H    5.1825946186791783E-01    6.4758612810458471E+00    2.1573132673181782E+01
O    2.7789631752027648E+00    7.6399379558326714E+00    1.5158846078438602E+01
H    2.4969131649122631E+00    8.0581215201036258E+00    1.4226595939929833E+01
H    2.0703395259696791E+00    7.0403896123105794E+00    1.5269668556685501E+01
O    3.2263878303422326E+00    2.5985673440779982E+00    9.7787134435588232E+00
H    2.6693861448904044E+00    3.3779081049098618E+00    9.4955590364088991E+00
H    3.6809261664177333E+00    2.4262439320014266E+00    8.8948204871233347E+00
O    1.5938885542046999E+00    5.4258037426199763E+00    1.2624112772486827E+01
H    2.2973742276402893E+00    4.5673822301320968E+00    1.2629642122623993E+01
H    8.4430409571081455E-01    5.3580854915132372E+00    1.2003236151904231E+01
O    9.3953209493921737E+00    9.9917628155668243E+00    6.3130630284501823E+00
H    8.9553427990253152E+00    1.0650344933784032E+01    6.9233784979398738E+00
H    8.9324779534472185E+00    9.9216113133420869E+00    5.4434279666535765E+00
O    9.6443487998019883E-01    3.8833414136479294E+00    6.6705701344467991E+00
H    1.4306363908512445E+00    4.4510351230504188E+00    7.3739911217700049E+00
H    1.2318492039888302E+00    4.3754775526480074E+00    5.9195897698827906E+00
O    1.8635393519005761E+00    7.6488017294302759E+00    1.8916126091131993E+01
H    2.6372854301445638E+00    7.5751526894907553E+00    1.9526302520127913E+01
H    9.4479815978153081E-01    7.6074059593673926E+00    1.9430475766834252E+01
K    8.3003821209840414E+00    2.7846282491910812E+00    2.0428114147247175E+01
O    5.4831232512139954E+00    2.2535414410072989E+00    1.9313018145467375E+01
H    5.2663412820282245E+00    3.2237231221563762E+00    1.9262078948360898E+01
H    5.2921498835858145E+00    1.8046245294482977E+00    2.0206526521283948E+01
O    8.3858756256238589E+00    4.4747660142520278E+00    8.4985492759502268E+00
O    8.0529062816859298E+00    3.9220643657343293E+00    6.2460684872142691E+00
     &END COORD
     &VELOCITY
           2.0704838577967361E-05   -9.9348504756149582E-05    2.3237442938060780E-05
           2.5378321720694234E-05    2.5640782537661249E-05   -2.7471278473662985E-05
           6.0815573413566473E-05   -9.1278671893496179E-05   -1.1555645780748789E-04
          -1.8764256082105094E-04   -3.4744666413740338E-05    1.3234858910956257E-05
           2.6141761653294294E-05   -3.6456988667236571E-05   -3.7274390140070297E-05
           2.8888904760869854E-06    5.9530962367593331E-05    1.7014761682324455E-04
          -2.3904996971327624E-05   -1.5525688534986474E-05    2.4859586116345061E-05
           5.0727673095287878E-05   -1.2502420924509737E-05   -4.2762838509474103E-05
          -5.8820722100336132E-05    2.2139772810444412E-05    4.8374625168348047E-05
          -6.5171131439837967E-05    5.4527176884969767E-05    1.7321971111334433E-05
           4.1020901594653004E-05   -6.9118486057868323E-05    1.6569760138659406E-04
           2.8922091986272776E-06   -8.1753301638760181E-06    1.3828964209075883E-04
          -1.2324167699627480E-04   -1.4829833371268403E-04    4.8591668621313761E-05
          -2.9024343055213148E-05    7.3130287256785537E-05   -3.3443498028652814E-05
          -4.7327758495405864E-05   -6.2948480480385331E-05    9.3104874333300661E-05
          -1.1453718917718965E-04    5.0635307140030046E-06   -1.9867013198164629E-05
          -6.3168608313889321E-05   -1.6451321900023956E-05   -6.5984460904495719E-05
          -8.2937243076102238E-06    9.7114810367435257E-05    1.0328846228575882E-05
          -1.4621736969737677E-04   -3.3890730448774094E-05   -9.3732595786495324E-05
           1.8383871096938587E-05    1.1266288165391471E-04   -3.8400583170451740E-05
           1.5583632251377354E-05    3.1155000126365555E-05    1.5058059651770712E-04
           6.4851031288502259E-05    8.3750770052215169E-06   -2.5854500971633806E-05
          -3.5824290474362620E-06    1.9806311054925466E-05   -1.6561896474880675E-04
           1.2775159621167026E-04    1.6410302995754133E-04   -5.6162873339829923E-06
          -7.2566141145073422E-05   -1.3580771759819589E-04   -1.5173249461300934E-05
          -2.7202616459904087E-05   -7.3618686805261994E-05    2.3827784846528817E-06
          -4.3401778375213703E-05   -3.4087304978232238E-05    4.4462052985987291E-05
           4.8482675447246414E-05    2.5481008541284300E-05   -2.9254999088623994E-05
          -1.7111540561238017E-04    1.3805941216335919E-04   -6.7740832579927309E-05
          -9.4796916527489569E-05    3.5277843567317312E-05   -1.3276856980473745E-04
           1.7965064911577590E-05   -2.3103318601911020E-05    1.4729959885523245E-04
          -1.1013467563096796E-04    1.0723138683115827E-04   -7.6083623214774827E-05