274
traj_9000
Cu    9.339635    10.148652    26.079835
Cu    1.577548    2.443308    26.131094
Cu    9.400978    10.177995    3.502765
Cu    1.547796    2.502095    3.435653
Cu    1.525815    10.114913    26.168877
Cu    9.286266    2.426234    26.025142
Cu    1.781924    0.091708    3.566177
Cu    9.368773    2.510070    3.375411
Cu    2.872609    1.108373    24.427667
Cu    0.141601    3.735915    24.381693
Cu    2.831100    1.314794    1.589812
Cu    0.371741    3.633574    1.424938
Cu    0.260607    1.271137    24.154200
Ag    2.954298    3.773335    24.216291
Cu    0.353338    1.115530    1.519265
Cu    2.992433    3.707391    1.595360
Cu    4.293220    10.067168    26.072965
Cu    6.733256    2.455372    26.182881
Cu    4.242816    0.047132    3.554816
Cu    6.634595    2.505673    3.244886
Cu    6.792555    0.048052    26.242595
Cu    4.094467    2.395460    26.184995
Cu    6.822920    10.105201    3.382016
Cu    4.066556    2.404764    3.268666
Cu    8.009199    1.249156    24.442728
Cu    5.657702    3.832429    24.509840
Cu    8.111847    1.175749    1.613063
Cu    5.439217    3.784479    1.517944
Cu    5.417747    1.074225    24.176658
Cu    8.035474    3.867804    24.519880
Cu    5.477454    1.197525    1.468799
Cu    8.048765    3.757897    1.569995
Cu    9.324912    5.112154    26.325824
Cu    1.682445    7.605764    26.192393
Cu    9.339328    4.994375    3.380166
Cu    1.629996    7.669459    3.424291
Cu    1.577446    5.009609    26.111806
Cu    9.370716    7.636129    26.154609
Cu    1.467845    5.070952    3.484269
Cu    9.407010    7.580204    3.457583
Cu    2.725487    6.483895    24.404945
Cu    0.491156    8.819852    24.480511
Cu    2.841733    6.310805    1.647940
Cu    0.498517    8.897962    1.709768
Cu    0.281259    6.370819    24.503499
Cu    3.040792    8.878230    24.338890
Cu    0.488089    6.291481    1.569467
Cu    3.046313    8.958795    1.568146
Cu    4.200489    4.906756    26.096745
Cu    6.930271    7.779774    26.104143
Ag    4.267047    5.051016    3.875315
Cu    6.742662    7.489109    3.397605
Cu    6.729064    5.235352    26.366778
Cu    4.304364    7.594517    26.294382
Cu    6.825169    4.999385    3.398133
Cu    4.107861    7.767608    3.303278
Cu    8.099271    6.334524    24.293708
Cu    5.618953    8.753090    24.462544
Cu    8.024535    6.515180    1.615441
Cu    5.636538    8.916774    1.535382
Cu    5.498004    6.341476    24.460166
Cu    8.208054    9.023819    24.401245
Cu    5.443307    6.424903    1.661415
Cu    8.177484    8.969427    1.577129
 O    5.422552    7.401081    6.420018
 H    5.350678    7.972393    5.660914
 H    5.380430    8.051321    7.205544
 O    8.289947    5.933031    6.517779
 H    8.076779    6.268580    5.630000
 H    8.933235    5.175849    6.321728
 O    1.822001    0.815152    17.302182
 H    1.449545    0.121255    17.824545
 H    2.236887    0.465699    16.479666
 O    4.277986    0.323893    5.860400
 H    3.605765    10.055410    6.377478
 H    4.056741    1.267559    6.110352
 O    0.417033    0.697679    6.514873
 H    0.307126    0.671812    5.517178
 H    0.076475    1.609344    6.866021
 O    6.943868    2.572129    12.224138
 H    6.984355    2.351804    13.189598
 H    7.852671    2.695633    11.911302
 O    1.240977    4.938144    17.098997
 H    1.134955    4.516306    16.200649
 H    0.705347    5.786216    17.014447
 O    8.134135    1.091299    21.054106
 H    8.229013    1.165320    20.018364
 H    7.502502    1.755341    21.377512
 O    6.524280    3.626417    21.509358
 H    7.515180    3.754114    21.446473
 H    6.074632    4.120743    20.705072
 O    2.293425    7.512113    14.258632
 H    2.907268    6.932622    14.739513
 H    2.594621    7.563335    13.303741
 O    7.485837    4.032408    17.981756
 H    7.800018    4.583170    17.178792
 H    8.345054    3.929658    18.516538
 O    0.513649    1.162048    21.781768
 H    9.863508    1.246907    21.403934
 H    1.092730    1.941723    21.586510
 O    5.547386    5.386053    19.555979
 H    4.585828    5.674673    19.324787
 H    5.863407    4.925773    18.745352
 O    8.057047    3.323790    8.749117
 H    7.824146    4.229627    9.040287
 H    8.565379    3.437275    7.921844
 O    8.085162    5.058581    15.195821
 H    7.509352    4.282281    15.011924
 H    8.985888    4.750126    15.031740
 O    9.370204    3.437173    11.460278
 H    9.171247    3.323074    10.465226
 H    10.057353    2.802575    11.652895
 O    4.394743    8.213472    16.907174
 H    3.996420    8.771493    16.192458
 H    4.990183    8.757588    17.453316
 O    3.957978    5.115324    9.101586
 H    4.205090    6.078824    9.180852
 H    4.584499    4.746139    8.380530
 O    7.456597    2.935793    5.846396
 H    7.336977    1.963807    5.677824
 H    8.159592    3.302217    5.285193
 O    4.324199    0.587159    12.877554
 H    4.204988    1.472139    12.421775
 H    5.241691    0.306308    12.868042
 O    2.355996    7.695938    11.297519
 H    3.300173    7.664449    10.977020
 H    2.034863    8.597380    11.084029
 O    4.241589    8.481952    21.600249
 H    4.570799    9.288822    22.098832
 H    3.246804    8.639093    21.613989
 O    9.490437    6.971268    20.966121
 H    8.744297    7.164193    20.334635
 H    9.056024    7.311213    21.749269
 O    3.026888    3.144156    12.968182
 H    3.751251    3.599426    12.465107
 H    3.309476    3.050812    13.877891
 O    8.859623    5.993659    12.499984
 H    8.962680    5.088537    12.353870
 H    9.317654    6.532868    11.838906
 O    4.195889    3.232593    15.595321
 H    4.372660    4.247928    15.681721
 H    3.788671    2.930476    16.449280
 O    2.331254    5.415191    21.284771
 H    1.545854    5.779059    21.811361
 H    2.355791    5.980982    20.409674
 O    9.917694    3.485225    19.020669
 H    0.469686    3.969327    18.541903
 H    9.936711    3.628564    19.987450
 O    6.615579    9.334727    12.568153
 H    7.469479    9.432161    13.067000
 H    6.331048    8.494630    12.976637
 O    3.279316    2.700950    18.493286
 H    2.815355    1.820979    18.192868
 H    4.250586    2.539821    18.688281
 O    1.509048    5.378078    8.231246
 H    2.353235    5.000816    8.650563
 H    0.808097    5.700744    8.907649
 O    8.533685    9.511805    14.282148
 H    9.116243    0.047439    14.461553
 H    9.209485    8.803698    14.441737
 O    9.591756    8.751045    9.370562
 H    9.379917    8.825986    8.416728
 H    8.663017    8.959101    9.710613
 O    10.100293    7.362435    14.571469
 H    0.874859    7.395356    14.303550
 H    9.627029    6.730291    13.899557
 O    4.415293    7.985173    9.461718
 H    3.712912    8.469479    8.940148
 H    5.212860    8.499742    9.542305
 O    3.488599    1.575299    9.272537
 H    4.402207    1.495143    8.814115
 H    2.952253    2.097944    8.703935
 O    5.788568    6.634595    22.282201
 H    5.018708    7.257129    21.951926
 H    5.774254    5.805233    21.729189
 O    7.330639    0.389837    16.511900
 H    8.138633    0.610265    17.057251
 H    7.780899    10.112766    15.820701
 O    5.915549    1.973724    18.564361
 H    6.521212    2.631939    18.158255
 H    5.913606    1.315714    17.843041
 O    1.723852    10.154991    10.288198
 H    0.960331    10.010016    9.678379
 H    2.440956    0.509866    9.928859
 O    2.520089    2.730906    21.229549
 H    2.521214    3.698291    21.342899
 H    2.804722    2.646354    20.298701
 O    7.350780    5.989979    9.252984
 H    7.478783    6.521928    10.058855
 H    7.907778    6.453019    8.554915
 O    10.217459    6.438910    10.215009
 H    9.956647    7.311315    9.802562
 H    0.839382    6.685613    10.661277
 O    1.020754    1.452509    12.366024
 H    1.236478    0.928739    11.583405
 H    1.822103    2.053573    12.385312
 O    6.684897    2.535016    14.856034
 H    7.011960    1.712708    15.332687
 H    5.816888    2.709742    15.265311
 O    0.715877    3.935895    14.672665
 H    1.325631    4.110212    13.897444
 H    0.502096    2.941723    14.615594
 O    5.737039    9.441976    19.334298
 H    5.815048    0.176669    19.264280
 H    4.788159    9.360696    19.623091
 O    7.803392    8.842038    21.986803
 H    7.007461    8.469479    21.607119
 H    7.845821    9.737038    21.617688
 O    3.348634    2.747366    6.674197
 H    2.879050    2.869542    5.786682
 H    4.104896    3.378999    6.623731
 O    0.005419    1.232491    14.782845
 H    0.504141    0.998977    13.948438
 H    0.589306    0.842245    15.529002
 O    6.132091    1.605357    8.583451
 H    6.789488    2.377875    8.695216
 H    6.497186    1.286780    7.742174
 O    5.253858    4.716183    6.626902
 H    6.189549    4.423779    6.577493
 H    5.260708    5.694610    6.592289
 O    7.475307    7.439216    19.057924
 H    6.843776    6.694201    19.221212
 H    7.106019    8.340044    19.078798
 O    8.958283    0.745731    18.607693
 H    9.478987    10.182493    18.862666
 H    9.688168    1.376035    18.397903
 O    6.908698    9.259275    9.869145
 H    6.812389    0.039669    9.770856
 H    6.906960    9.134850    10.889299
 O    1.641345    6.994681    6.056979
 H    2.459870    6.916877    5.554697
 H    1.785706    6.402615    6.868663
 O    2.983641    6.263570    18.761470
 H    3.072486    6.973927    18.113074
 H    2.579592    5.531130    18.241220
 O    6.191492    6.690520    13.195939
 H    7.155912    6.443408    13.244292
 H    5.723033    6.098761    12.500777
 O    6.805539    0.244658    5.600407
 H    5.768018    0.147838    5.692356
 H    7.243531    9.618850    5.925926
 O    2.850526    10.086695    15.004525
 H    2.391472    9.301193    14.725245
 H    3.427256    0.188120    14.237230
 O    9.754419    7.072485    17.131761
 H    8.905835    6.990694    17.551342
 H    9.592676    7.221345    16.126932
 O    1.433902    8.752067    21.368264
 H    1.035068    9.696756    21.344748
 H    1.288620    8.541455    22.316021
 O    4.531641    6.071361    15.253421
 H    5.302523    6.160206    14.536063
 H    4.856659    6.850217    15.785560
 O    2.613740    9.009914    7.554578
 H    1.952458    9.693484    7.691444
 H    2.245373    8.420302    6.843562
 O    5.209077    4.644820    11.552227
 H    5.907881    3.925671    11.785533
 H    4.923932    4.582352    10.596807
 O    8.679478    9.091296    6.715944
 H    9.158058    8.285551    6.455687
 H    9.396071    9.750840    6.568509
 O    0.233923    3.475308    6.676047
 H    0.782537    4.086084    7.233815
 H    0.287292    3.704119    5.720627
 O    0.796646    8.979345    18.708626
 H    1.015029    8.693587    19.614900
 H    0.257438    8.339022    18.148215
 O    9.208462    4.309681    21.417409
 H    9.295570    5.291686    21.177761
 H    9.442896    4.332582    22.364638
 O    4.903587    1.273387    21.909122
 H    5.451383    2.089765    21.756139
 H    4.093343    1.787240    21.920484
