274
traj_9500
Cu    9.362536    0.124016    26.131886
Cu    1.684285    2.659441    26.211681
Cu    9.445861    0.184132    3.251491
Cu    1.486760    2.594008    3.349517
Cu    1.809221    0.113383    26.177861
Cu    9.319187    2.645025    26.045751
Cu    1.657192    0.080667    3.304071
Cu    9.320209    2.621306    3.281348
Cu    3.141089    1.053777    24.325414
Cu    0.322973    4.006542    24.341003
Cu    2.907984    1.288007    1.645826
Cu    0.368469    3.852263    1.482010
Cu    0.477865    1.406400    24.350779
Ag    3.030875    3.660770    24.309033
Cu    0.383805    1.410489    1.404594
Cu    2.905019    3.952151    1.621254
Cu    4.271648    0.039362    26.331373
Cu    6.768426    2.566812    26.263732
Cu    4.134545    0.018914    3.588372
Cu    6.792248    2.706778    3.352952
Cu    6.738470    10.136281    26.251842
Cu    4.149779    2.407831    26.232290
Cu    6.802881    0.003374    3.382016
Cu    4.157242    2.638482    3.373033
Cu    8.054184    1.322973    24.422647
Cu    5.661791    3.817400    24.466508
Cu    7.978732    1.223699    1.603551
Cu    5.533277    3.972190    1.759969
Cu    5.513136    1.350066    24.595183
Cu    8.053571    3.987321    24.472585
Cu    5.527858    1.321235    1.723771
Cu    7.978016    3.909722    1.490993
Cu    9.322050    5.119107    26.160422
Cu    1.674470    7.605252    26.303365
Cu    9.154480    5.169102    3.376203
Cu    1.580922    7.796848    3.285576
Cu    1.793068    5.138123    26.160422
Cu    9.286266    7.815149    26.054470
Cu    1.454248    5.155299    3.570669
Cu    9.358242    7.575092    3.324944
Cu    2.824250    6.283813    24.191455
Cu    0.520703    9.057557    24.462280
Cu    2.864635    6.389938    1.692329
Cu    0.256313    9.023103    1.467478
Cu    0.368981    6.426335    24.417099
Cu    2.912585    8.714852    24.225539
Cu    0.420509    6.375522    1.526663
Cu    2.811573    9.025659    1.614384
Cu    4.205499    5.072486    26.124224
Cu    6.739595    7.763110    26.334807
Ag    4.279418    5.113893    3.758794
Cu    6.682750    7.632550    3.396812
Cu    6.574070    5.229320    26.221193
Cu    4.250177    7.668641    26.220136
Cu    6.783455    5.263979    3.362992
Cu    4.101931    7.758713    3.468680
Cu    8.102441    6.380634    24.301370
Cu    5.400060    9.055922    24.462016
Cu    7.909516    6.484304    1.559162
Cu    5.410590    8.995601    1.718487
Cu    5.439524    6.371330    24.372181
Cu    7.938552    9.047129    24.398867
Cu    5.348736    6.387790    1.667228
Cu    8.116550    8.862485    1.672777
 O    5.628666    6.476636    6.370608
 H    5.421018    6.952048    5.556018
 H    5.303239    7.052855    7.081360
 O    8.856147    6.335751    6.469162
 H    8.007972    6.338716    5.975600
 H    9.599629    6.209179    5.773471
 O    1.998363    0.846743    16.536737
 H    1.792454    0.063184    17.123041
 H    2.710049    0.502914    15.939336
 O    4.039156    0.334117    5.824201
 H    3.555566    9.940187    6.450667
 H    3.642776    1.214599    5.995416
 O    0.747572    0.443411    6.320671
 H    0.943870    0.335446    5.328789
 H    0.531234    1.440650    6.356076
 O    6.297718    2.188528    12.416226
 H    6.094774    2.404150    13.373495
 H    7.304261    2.273898    12.325335
 O    1.314896    4.546364    17.311430
 H    1.014927    3.993967    16.562631
 H    0.705347    5.336774    17.300069
 O    8.263160    0.811471    21.029270
 H    8.580408    0.671404    20.100272
 H    7.681932    1.647377    21.023193
 O    6.487576    2.894693    21.529438
 H    6.469991    3.165831    22.477195
 H    6.001429    3.657907    21.086077
 O    2.506287    7.380633    13.823726
 H    3.124219    6.780695    14.376210
 H    2.840813    7.404557    12.867250
 O    7.563743    3.576934    17.914380
 H    7.602185    3.900725    16.972436
 H    8.496368    3.220426    18.198681
 O    0.678458    1.238114    22.270047
 H    9.964520    1.273796    21.893798
 H    1.292812    1.873734    21.742135
 O    5.846333    4.932827    19.770790
 H    4.932316    4.999385    19.347510
 H    6.407829    4.432061    19.134020
 O    7.565073    3.159492    9.769799
 H    7.547079    4.140577    9.784331
 H    7.815251    3.050301    8.814643
 O    7.667209    4.444738    14.891703
 H    7.111234    3.628258    14.835689
 H    8.625189    4.183722    14.814023
 O    8.938347    2.866270    12.026766
 H    8.557302    2.863612    11.083765
 H    9.729881    2.243226    12.166010
 O    4.281565    7.955114    17.033999
 H    3.927511    8.573047    16.367108
 H    5.080665    8.332785    17.360575
 O    3.945710    4.896021    9.011223
 H    4.180450    5.857886    8.848199
 H    4.478886    4.399242    8.341161
 O    7.891317    2.580512    7.049390
 H    7.752988    1.704529    6.646454
 H    8.757997    3.026479    6.787812
 O    4.845720    10.223082    12.830523
 H    5.377669    0.827114    12.800138
 H    5.532152    9.520905    12.713474
 O    3.262651    7.867393    11.167258
 H    4.250177    7.946526    11.094862
 H    2.976995    8.818318    10.940029
 O    4.057764    8.828644    20.995450
 H    4.161025    9.817091    21.305115
 H    3.126060    8.696245    20.961365
 O    9.976891    6.629075    21.387288
 H    9.346792    6.773334    20.620257
 H    9.529902    6.953990    22.202935
 O    2.642674    3.201614    13.382215
 H    2.997750    3.677537    12.603558
 H    3.312339    3.162763    14.108027
 O    9.678353    5.429709    12.233650
 H    9.286368    4.510478    12.338810
 H    0.074839    5.545852    11.494098
 O    4.179530    3.358449    15.915820
 H    4.273283    4.356199    15.783182
 H    3.793374    3.302217    16.890792
 O    2.665984    5.181473    21.780447
 H    1.776607    5.254982    22.159075
 H    2.631427    5.778855    20.965329
 O    9.879661    2.805643    18.823561
 H    0.387486    3.398527    18.349551
 H    9.825066    3.222573    19.705263
 O    6.844185    8.437069    12.537767
 H    7.620588    8.544011    13.175330
 H    6.546772    7.533890    12.650061
 O    3.209896    2.259686    18.424589
 H    2.519578    1.875165    17.809221
 H    3.924648    1.546058    18.457881
 O    1.256824    4.698393    8.201389
 H    2.238318    4.733155    8.413029
 H    0.896534    5.293015    8.947810
 O    8.430117    8.774560    14.589172
 H    9.056944    9.557302    14.665531
 H    9.078721    8.025557    14.466045
 O    9.449337    8.642365    9.632669
 H    9.202328    8.799608    8.688082
 H    8.533480    8.827622    10.005747
 O    10.171656    6.933542    14.338163
 H    0.893160    7.141599    14.101157
 H    9.964008    6.240464    13.609444
 O    4.797770    7.614147    8.594812
 H    4.136999    8.360390    8.524001
 H    5.646660    7.903279    9.047421
 O    2.781208    2.027808    8.819928
 H    1.909109    2.403230    8.864845
 H    3.062978    2.448624    8.027004
 O    5.752886    6.747365    21.909387
 H    5.102748    7.482054    21.639090
 H    5.836211    6.049482    21.231927
 O    6.738675    9.795416    16.319020
 H    7.465798    9.840504    17.003085
 H    7.193843    9.267863    15.537986
 O    5.611592    1.085369    18.301727
 H    6.117777    1.890910    18.057587
 H    5.685920    0.553215    17.469962
 O    1.505163    10.074938    10.439596
 H    0.698395    9.540637    10.090562
 H    2.015642    0.242920    9.647465
 O    2.489622    2.714650    20.982503
 H    2.732440    3.618238    21.336029
 H    2.682342    2.664757    19.952045
 O    7.639298    5.796133    9.904551
 H    7.930986    6.296491    10.692455
 H    8.180756    6.185664    9.184023
 O    0.888355    6.466208    10.215009
 H    0.283815    7.254266    10.130195
 H    1.811675    6.696961    10.466811
 O    0.982926    1.337388    12.589026
 H    1.370105    0.671710    11.914737
 H    1.727328    1.858909    12.983771
 O    6.200182    2.048358    15.109685
 H    6.518759    1.217360    15.419351
 H    5.333297    2.280748    15.565464
 O    0.186075    3.581125    15.096738
 H    0.832430    3.722011    14.355337
 H    0.036295    2.654022    15.190800
 O    6.145893    8.697983    19.336941
 H    6.211428    9.632856    19.099407
 H    5.279213    8.683976    19.850584
 O    7.883854    8.423164    22.363581
 H    7.134851    7.769346    22.124197
 H    7.711683    9.270726    21.814532
 O    3.306818    3.104487    6.282623
 H    2.767916    3.405683    5.524576
 H    4.268376    3.464777    6.405750
 O    10.086491    0.544423    14.972819
 H    0.309273    0.570289    14.080284
 H    0.633575    0.680401    15.610910
 O    5.628768    1.295982    9.243737
 H    6.197217    1.916061    9.730694
 H    4.682546    1.469992    9.539927
 O    5.547079    3.910744    7.066035
 H    6.353643    3.261731    7.200523
 H    5.839585    4.794498    6.654909
 O    8.171759    6.786932    19.049205
 H    7.661688    5.947549    19.014857
 H    7.424596    7.369796    19.228346
 O    8.795519    0.305388    18.359062
 H    9.574171    10.001121    18.375973
 H    9.089763    1.179531    17.996553
 O    6.704731    9.051116    10.021865
 H    6.288210    9.969427    9.882092
 H    6.784887    8.923420    11.056022
 O    1.664553    6.749410    6.526498
 H    2.225539    6.381656    5.748106
 H    1.461813    5.978017    7.110689
 O    3.171760    6.107247    18.996361
 H    3.301195    6.864531    18.320222
 H    2.758204    5.419689    18.375708
 O    6.070952    6.097636    13.264637
 H    6.740413    5.490439    13.709319
 H    5.589713    5.520804    12.589290
 O    6.835700    0.449340    5.627358
 H    5.883139    0.437378    5.935438
 H    7.336773    9.853590    6.068605
 O    3.454860    9.656474    14.957758
 H    3.142213    8.881911    14.409238
 H    4.120743    9.945503    14.172497
 O    0.177487    7.070338    17.316450
 H    9.460890    7.011346    17.838021
 H    0.042736    7.262650    16.384282
 O    1.169716    9.013901    21.068639
 H    0.752479    9.829360    21.467082
 H    0.769144    8.128001    21.363244
 O    4.204068    6.061035    15.238624
 H    4.993864    6.228093    14.584680
 H    4.454553    6.731620    15.908158
 O    2.621817    9.017787    7.410314
 H    1.747060    9.514566    7.396046
 H    2.341580    8.064612    7.217962
 O    4.414067    4.464982    11.712873
 H    4.977915    3.652284    11.562267
 H    4.122788    4.663428    10.794444
 O    8.693893    9.247722    6.813177
 H    9.126467    8.414372    6.479996
 H    9.407624    9.868415    6.561904
 O    10.190672    3.333503    6.134924
 H    0.578468    3.873631    6.734704
 H    10.131374    3.828135    5.231292
 O    1.201002    9.295774    18.436479
 H    1.298640    9.245268    19.395069
 H    0.967794    8.397809    18.138967
 O    9.188832    4.027705    21.225585
 H    9.337386    4.987321    21.465497
 H    8.874754    3.589816    22.037269
 O    4.504548    1.008383    21.879001
 H    5.288517    1.401799    21.495882
 H    3.698905    1.547796    21.651772
