     270
 i =        0, time =        0.000, E =     -4281.4050244748
 Cu         9.7727190000        0.0960020000       24.9632410000
 Cu         2.2372960000        2.7656670000       24.9574290000
 Cu         9.8518520000        0.1367960000        2.1961970000
 Cu         2.0884360000        2.7521720000        2.1734740000
 Cu         2.1760550000        0.2786010000       25.1429110000
 Cu         9.8712780000        2.5908380000       24.9212300000
 Cu         2.2016150000        0.2124530000        2.1560350000
 Cu         9.8646320000        2.6923620000        2.1858920000
 Cu         3.4926890000        1.4894180000       23.2362990000
 Cu         0.7612720000        3.9676910000       23.1604680000
 Cu         3.4426940000        1.4343110000        0.4639700000
 Cu         0.9405990000        4.0506070000        0.4121830000
 Cu         1.1670580000        1.5111950000       23.0981120000
 Ag         3.4579270000        4.1010110000       22.9451290000
 Cu         0.8481750000        1.6028010000        0.3580180000
 Cu         3.4568030000        4.0425300000        0.4182600000
 Cu         4.7173070000        0.1396580000       24.9907200000
 Cu         7.2681710000        2.6637350000       24.8953370000
 Cu         4.8521610000        0.1078620000        2.2641010000
 Cu         7.1455860000        2.7702680000        2.1523360000
 Cu         7.3468950000        0.2151110000       25.0086870000
 Cu         4.8278280000        2.7104580000       24.9278360000
 Cu         7.3144850000        0.1166550000        2.2413780000
 Cu         4.4812380000        2.6187500000        2.2741420000
 Cu         8.6892930000        1.4274610000       23.1316680000
 Cu         6.2426110000        4.1314780000       23.1728870000
 Cu         8.5210070000        1.4040480000        0.4137690000
 Cu         6.0528560000        3.9597160000        0.3971230000
 Cu         6.0286250000        1.2521210000       23.1596760000
 Cu         8.6144540000        3.8735290000       23.2125200000
 Cu         6.0362930000        1.4777630000        0.4032000000
 Cu         8.5346050000        3.8751650000        0.3215560000
 Cu         9.9860920000        5.2841200000       25.0047240000
 Cu         2.1783040000        7.8613610000       24.9962690000
 Cu         9.9018470000        5.1547880000        2.2596090000
 Cu         2.2800320000        7.7635180000        2.1179880000
 Cu         2.2471110000        5.2758390000       25.0274470000
 Cu         9.8820130000        7.8098330000       24.9907200000
 Cu         2.2493600000        5.2337170000        2.2889380000
 Cu         9.8707660000        7.7836600000        2.2493050000
 Cu         3.4974940000        6.6630180000       23.3295690000
 Cu         0.9187200000        9.2750200000       23.2540020000
 Cu         3.5322550000        6.4730580000        0.4943560000
 Cu         0.9040990000        9.1352590000        0.4571010000
 Cu         0.9477560000        6.6248830000       23.2030080000
 Cu         3.4478060000        9.2186860000       23.3012980000
 Cu         0.8509350000        6.5681400000        0.4618570000
 Cu         3.4559850000        9.0643050000        0.5331960000
 Cu         4.7249750000        5.2883120000       25.1828080000
 Cu         7.3227660000        7.9156500000       25.0089510000
 Ag         4.8582950000        5.2412820000        2.4641160000
 Cu         7.3807360000        7.7496140000        2.3756020000
 Cu         7.2898450000        5.2148020000       25.0181990000
 Cu         4.7711870000        7.8373350000       25.1624630000
 Cu         7.3875860000        5.2075430000        2.3431030000
 Cu         4.9429490000        7.7477740000        2.3716390000
 Cu         8.6063770000        6.4394210000       23.2835950000
 Cu         5.8746530000        8.9884440000       23.3108100000
 Cu         8.6326520000        6.4297080000        0.3876110000
 Cu         6.0468230000        9.0621580000        0.4375480000
 Cu         5.8541030000        6.4364560000       23.3298330000
 Cu         8.4968790000        9.0277040000       23.0970560000
 Cu         6.0829140000        6.5736610000        0.4029360000
 Cu         8.4985150000        8.9554210000        0.4758600000
  O         8.1890370000        9.2835060000        5.6585360000
  H         7.7821260000       10.1824930000        5.4479520000
  H         7.7787520000        8.8067650000        4.9100000000
  O         9.0277040000        6.0406890000        5.3940510000
  H         9.4627310000        6.6260070000        6.0358420000
  H         9.1992610000        6.4251080000        4.4608260000
  O         3.8241480000        9.9828200000       15.5805250000
  H         2.9470390000        9.5096580000       15.5340220000
  H         4.2550850000        9.9082880000       14.7038430000
  O         6.9061420000        1.3383090000        5.3155780000
  H         6.1068380000        1.2684790000        5.9357020000
  H         6.4919720000        1.1495750000        4.4346680000
  O         3.2687850000        0.7318270000        4.6317770000
  H         3.9047120000        1.2632650000        4.0880120000
  H         3.8061530000       10.1775860000        5.0162170000
  O         6.7966440000        2.9686120000       12.6878440000
  H         6.2676600000        3.6395040000       12.1387950000
  H         6.4910520000        3.2951630000       13.5925340000
  O         4.8194440000        6.0271940000       15.0679380000
  H         4.1506990000        6.1992620000       14.3460890000
  H         4.4528150000        6.1988530000       16.0088260000
  O         7.9755620000        9.1592850000       20.9803890000
  H         7.1762580000        8.7226230000       20.5964770000
  H         7.9009280000       10.0964080000       20.6477360000
  O         0.1410900000        4.7279400000       16.8971330000
  H         0.2219610000        5.6422640000       17.3127510000
  H         9.4010810000        4.4780680000       16.8131110000
  O         4.7144450000        7.3191880000       11.4338560000
  H         5.0500950000        6.4080340000       11.3109940000
  H         5.2072370000        7.7993020000       10.7027600000
  O         0.8035990000        4.6772300000       14.3489960000
  H         0.0293430000        4.5814320000       13.7183020000
  H         0.5325630000        4.7370400000       15.3099640000
  O         1.1177790000       10.1903660000       20.1528520000
  H         0.3771600000       10.2068260000       19.4777700000
  H         0.7974640000       10.0593970000       21.0704880000
  O         7.6499310000        6.2735900000       18.2895730000
  H         7.0255570000        6.1141990000       19.0674360000
  H         7.1896510000        7.0858780000       17.8459470000
  O         7.9573640000        3.4752060000        8.1596420000
  H         7.6625060000        4.3809410000        8.2085230000
  H         8.2181750000        3.4290960000        7.1571910000
  O         7.3969920000        8.2209360000       16.3993430000
  H         8.2660230000        8.5822480000       16.5557610000
  H         7.3469970000        7.8257820000       15.4996740000
  O         9.9471390000        3.1841310000       10.0110320000
  H         9.3357500000        3.2938340000        9.2685730000
  H         0.5326650000        2.6368460000        9.7108780000
  O         5.1048960000        8.6221220000       17.4741900000
  H         4.6534080000        9.2604000000       16.8717680000
  H         5.9962150000        8.4653890000       17.0374340000
  O         7.1501870000        5.8820140000        9.1755680000
  H         7.6411380000        5.9990780000       10.0955820000
  H         6.4231650000        6.5724340000        9.1256300000
  O         8.7399010000        3.2220620000        5.5964440000
  H         8.0414040000        2.8018600000        5.0111970000
  H         8.8376410000        4.1723740000        5.4572000000
  O         6.6883730000        0.6274410000       11.3958090000
  H         7.4245960000       10.2088710000       11.1532550000
  H         7.0054160000        1.4143740000       11.9237200000
  O         5.4997430000        7.9773000000        9.0926030000
  H         6.2418950000        8.5157930000        8.6690580000
  H         4.6322450000        8.4405450000        8.8629960000
  O         4.5898150000        0.2551890000       20.4371530000
  H         4.4912570000        0.5174320000       21.3796260000
  H         3.9840490000        9.7205770000       20.2984370000
  O         1.2334110000        4.9901830000       20.9473620000
  H         2.1086790000        5.3577330000       20.7859230000
  H         0.5412530000        5.7269180000       20.8268770000
  O         3.9950910000        2.2736930000       12.3847840000
  H         4.8905000000        1.9173900000       12.6484760000
  H         3.4551670000        2.4819540000       13.2495760000
  O         1.2599930000        5.7377550000        9.1158540000
  H         0.9614560000        4.8187290000        9.2743860000
  H         2.1523350000        5.6428770000        8.6529410000
  O         5.7236460000        3.5795920000       15.0843200000
  H         5.3818610000        4.5150790000       15.1210460000
  H         5.3246070000        3.0769850000       15.8228150000
  O         8.0047000000        2.6882720000       20.2944740000
  H         7.6969610000        2.3436250000       21.1695710000
  H         7.6396050000        3.6092410000       20.3827230000
  O         3.9252620000        4.8450040000       19.9993400000
  H         3.9077790000        5.3023190000       19.0872530000
  H         3.8820150000        3.9105400000       19.7282510000
  O         8.7094340000        9.2804390000       10.5500400000
  H         9.5770340000        9.6175200000       10.9373870000
  H         8.5804080000        8.4533250000       11.0792730000
  O         5.1100070000        1.9427450000       17.0310930000
  H         4.8097320000        1.1087820000       16.5990930000
  H         5.8703590000        1.6340860000       17.5738010000
  O         2.8226140000        6.9093120000        5.1477980000
  H         1.9914110000        7.3537450000        4.9697140000
  H         2.7431750000        5.9144240000        4.8658760000
  O         0.8659640000        9.9312920000       11.5445640000
  H         1.3112150000        0.3715370000       10.9178350000
  H         1.2507920000        8.9898750000       11.4544650000
  O         0.9880380000        9.1404730000        7.6314660000
  H         0.9431550000        9.1162430000        6.6327150000
  H         0.4835900000        8.3417820000        7.9279210000
  O         1.9733150000        7.4851220000       11.0684400000
  H         2.9070640000        7.2719530000       10.9685650000
  H         1.5473870000        6.9812880000       10.3283600000
  O         7.3852340000        9.3469960000        8.1591140000
  H         7.7855000000        9.0128790000        7.3268210000
  H         8.1004980000        9.2282970000        8.9224450000
  O         2.8544110000        3.1279000000        7.6557750000
  H         2.6548400000        2.7828430000        8.5797520000
  H         3.2296280000        4.0241270000        7.8251400000
  O         5.9240340000        8.0032690000       20.0656590000
  H         5.4756140000        8.2744070000       19.1773520000
  H         5.2224700000        7.9024610000       20.7687490000
  O         0.3060010000        0.5038340000       14.0028670000
  H         0.8353950000        1.3699000000       13.9563650000
  H         0.5265310000        0.2005930000       13.0794180000
  O         9.5995260000        1.9064510000       16.4429390000
  H         8.7804900000        2.4748990000       16.4646050000
  H         9.4889040000        1.3959710000       15.6769650000
  O         3.2506890000        9.8936680000        8.5871500000
  H         2.3844180000        9.5370580000        8.1546220000
  H         3.8398920000        0.1034660000        7.9387540000
  O         3.6448200000        2.2541650000       19.2896450000
  H         4.1885270000        1.4831810000       19.7993260000
  H         4.1065320000        2.1362840000       18.3862770000
  O         9.5704910000        6.9901830000        7.9805010000
  H         8.6789660000        6.7024820000        8.2706140000
  H        10.2076440000        6.3380000000        8.3292710000
  O         3.5468750000        5.7386750000        7.7905270000
  H         3.4552690000        6.3865640000        7.0071140000
  H         4.4128400000        5.8929540000        8.2114290000
  O         2.3718430000        1.4441260000       10.1888520000
  H         2.8184230000        0.7269190000        9.5483820000
  H         3.0487670000        1.7486960000       10.9130790000
  O         7.7008460000        3.9393710000       16.8818080000
  H         7.1235020000        3.8557390000       16.0698600000
  H         7.5196780000        4.8060510000       17.3537050000
  O         9.3716360000        4.3262430000       12.3195220000
  H         9.7706750000        3.8214890000       11.5807630000
  H         8.5253010000        3.8797660000       12.5330110000
  O         9.3143820000        0.0926290000       18.1735800000
  H         9.2636710000        0.6252940000       17.3455150000
  H         8.4122250000        0.2442490000       18.5199720000
  O         9.7909180000        7.3271620000       19.7200600000
  H         9.0824020000        7.1818810000       19.0079870000
  H         9.3217430000        7.8520570000       20.3692480000
  O         5.1829040000        4.2187900000        5.7623740000
  H         5.9399840000        3.7198640000        5.4128110000
  H         5.5295960000        5.1835170000        5.8146900000
  O         2.9464260000        6.1608200000       13.5676970000
  H         2.6130240000        6.4320600000       12.6661780000
  H         2.1902660000        5.5519870000       13.9634990000
  O         5.8770040000        2.2904600000        9.3417620000
  H         6.6678230000        2.6354150000        8.9108200000
  H         6.0872080000        1.5591450000        9.8976810000
  O         6.3735790000        6.4868600000        6.1626670000
  H         7.2464960000        6.4358430000        5.7740000000
  H         5.8727100000        7.2510970000        5.8382050000
  O         1.1490640000        7.1594900000       17.6303440000
  H         1.0550040000        7.9619640000       17.0556650000
  H         0.9020550000        7.5035250000       18.5374110000
  O         2.1272870000        2.3655040000       14.4102950000
  H         2.2627540000        1.9199460000       15.2906760000
  H         1.6364370000        3.2073400000       14.4055390000
  O         9.8091160000        1.1368980000        7.8758700000
  H         8.9016430000        1.0671710000        8.2130140000
  H         0.0955930000        0.2508950000        8.1023060000
  O         4.7707780000        8.6476810000        5.1116000000
  H         5.4238810000        8.7591220000        4.3789180000
  H         3.9862990000        8.1193100000        4.7567530000
  O         6.5782620000        5.0070530000       20.5343860000
  H         6.7350960000        5.7546240000       21.1410350000
  H         5.5523960000        5.0076660000       20.5230240000
  O         8.2511980000        6.7635190000       11.7128730000
  H         8.9574660000        6.1718620000       11.9984940000
  H         7.6080130000        6.5986070000       12.4175470000
  K         1.1015230000        1.9739280000        5.8342420000
  O         5.2880060000        9.3610030000       13.3222370000
  H         4.7234420000        8.6983920000       12.7893050000
  H         5.5729460000        9.9822070000       12.6268100000
  O         1.2401590000        8.7808990000       15.3173620000
  H         0.8570700000        9.6024910000       14.9181250000
  H         1.4255180000        8.1211500000       14.5981550000
  O         2.9807780000        8.3528240000       20.1951270000
  H         2.1254470000        8.7893850000       19.9866580000
  H         3.0473360000        8.0302600000       21.1352220000
  O         6.8468440000        7.1606150000       13.9730100000
  H         6.4108960000        7.9402900000       13.5412750000
  H         5.9814930000        6.7709820000       14.4924670000
  O         4.8437770000        1.3231770000        7.1077820000
  H         5.2759410000        1.6693580000        7.9699320000
  H         4.1379190000        2.0163580000        6.8720980000
  O         4.9559330000        4.5913490000       10.7944440000
  H         4.2999680000        4.0517320000       11.3094090000
  H         5.3296170000        3.8847750000       10.1560880000
  O         0.4779670000        9.2983300000        5.0022130000
  H         9.7336640000        9.4496440000        5.1713140000
  H         0.6221240000        9.0204450000        4.0660820000
  O         2.6783550000        4.3808390000        5.0555850000
  H         3.6646550000        4.0975350000        5.1578390000
  H         2.3748070000        4.0219800000        4.2100810000
  O         3.8273170000        6.3354440000       17.5220140000
  H         4.2797250000        7.2255370000       17.6712980000
  H         2.8727110000        6.5663000000       17.4305930000
  K         0.6741640000        2.6439010000       19.5588850000
  O         6.7412310000        0.9272050000       18.7794360000
  H         7.1488580000        1.6404250000       19.3168600000
  H         6.1353620000        0.4678460000       19.4143570000
     270
 i =      500, time =      500.000, E =     -4281.3556632131
 Cu        10.0242651372        0.3134205082       25.0284672363
 Cu         2.0132638325        2.6695693547       24.9485331942
 Cu         9.9960614049        0.1120498981        2.1920958635
 Cu         2.2980813110        2.7804615108        2.1930912736
 Cu         2.2753433428        0.2091482607       25.0971944823
 Cu         9.8166215416        2.6824011204       24.9163288292
 Cu         2.1904974313        0.3687177228        2.2115723806
 Cu         9.9723050602        2.8775501600        2.2251262610
 Cu         3.6229962918        1.4764631548       23.3108415305
 Cu         0.7858889163        4.0024689583       23.1426033261
 Cu         3.5845439273        1.5236512351        0.3183372222
 Cu         0.9350606429        4.0198823992        0.3395928606
 Cu         1.2656889103        1.5795924522       22.9701389414
 Ag         3.5536808843        4.0344071703       23.0025474716
 Cu         0.8769462671        1.5325526859        0.5233982945
 Cu         3.5384433222        3.8677997908        0.4658423278
 Cu         4.9268800862        0.2293954903       25.1076860139
 Cu         7.4022013732        2.7237096546       24.9449153564
 Cu         4.8498962948        0.1189202911        2.1485511922
 Cu         7.3594976856        2.7625989354        2.1937262746
 Cu         7.3636253779        0.2267052529       25.0338683426
 Cu         4.8382150034        2.8540734628       25.0629243298
 Cu         7.4034659723        0.2593277175        2.0817675598
 Cu         4.7249154428        2.6275957109        2.1452213335
 Cu         8.7171230905        1.3897829897       23.2835218396
 Cu         6.0442206679        4.0257220528       23.1257758458
 Cu         8.6451267005        1.4766646502        0.4768019840
 Cu         6.1000214854        4.1039926986        0.4593613166
 Cu         6.1845258280        1.4419298949       23.1981637449
 Cu         8.5495754913        4.1162050415       23.1562114991
 Cu         6.0345830600        1.4527910595        0.4218078094
 Cu         8.7061689571        3.9026184905        0.4319047986
 Cu         9.7954788166        5.1723776964       25.0207377005
 Cu         2.2556237123        7.8328370883       25.0294395018
 Cu         9.8977125756        5.2332376872        2.2512000031
 Cu         2.3120065619        7.7405333451        2.2668329358
 Cu         2.2416533311        5.2137777257       25.0480197231
 Cu        10.0408081450        7.7425083232       24.9760713411
 Cu         2.0989502272        5.2939656436        2.0192834261
 Cu        10.0609669873        7.7728661112        2.1658879554
 Cu         3.4950483623        6.5723469046       23.3383268899
 Cu         0.9601841619        9.1805183559       23.3783431571
 Cu         3.5151203534        6.5215770808        0.3600110659
 Cu         1.0342112893        9.1711476223        0.3756053081
 Cu         1.0515216426        6.4984977822       23.0987597983
 Cu         3.6367579077        9.0611439837       23.1853013197
 Cu         1.0829961804        6.6176300240        0.3899979275
 Cu         3.5891344798        9.0466832313        0.3304971476
 Cu         4.7770472769        5.2479122724       25.0870132840
 Cu         7.4398691869        7.7776649238       25.0164489550
 Ag         4.7294798663        5.3576710869        2.6457728364
 Cu         7.3108058983        7.8314676070        2.3784710857
 Cu         7.2486685298        5.2236497441       25.0859298645
 Cu         4.8181049617        7.7549330255       24.9660632295
 Cu         7.4395737848        5.3338069307        2.2333633089
 Cu         4.8787504106        7.8031950926        2.1682927760
 Cu         8.6566909060        6.5339861283       23.2927661118
 Cu         6.1435662807        9.1541227668       23.4022940654
 Cu         8.6517623435        6.5996942415        0.4474531354
 Cu         6.0850874224        9.0194507336        0.4630554748
 Cu         6.0965814540        6.4674100147       23.2870905143
 Cu         8.7438865859        9.1039010601       23.3744148924
 Cu         6.0913260367        6.5420073929        0.4096683164
 Cu         8.8429601435        9.2218865251        0.3159236210
  O         8.2711336596        9.1497743513        5.2403910256
  H         8.0299654754       10.0833816036        5.3392368881
  H         7.9460002255        9.0468914903        4.2168391330
  O         9.0082897506        6.0660839033        5.0525355816
  H         9.4938528110        6.3862956762        5.8557156126
  H         8.9881044510        6.8413932627        4.4011895956
  O         3.9717495893        9.2917504620       15.8309409498
  H         2.9289635828        9.1758032520       15.8096949794
  H         4.3860440651        9.0842961048       14.9219246366
  O         6.9377361074        1.3834762472        5.0289039730
  H         6.1931711094        1.4941025676        5.7262607847
  H         6.6704870066        1.4466164807        4.0914666923
  O         3.4298209596        1.2082655942        4.8940000230
  H         3.5914346263        1.5493985047        4.0080506024
  H         4.1424080031       10.8040969348        5.0710402962
  O         7.2824303239        3.3367718711       12.6764343190
  H         6.8345378584        3.8874713872       12.0141351680
  H         6.7291341246        3.3997488248       13.5965313170
  O         4.5793531942        6.0157534531       14.6948135756
  H         3.7282413929        6.3240355758       14.2612595397
  H         4.1410421796        5.8497794352       15.5472622372
  O         7.6475617450        9.2210074060       20.5256234549
  H         6.9067863792        8.5746505030       20.5313066608
  H         7.1547855898        9.9300941539       21.0205975825
  O        -0.1267500815        4.5166408797       17.0335301042
  H         0.1832559716        5.4363045938       17.2924243953
  H         9.0543854123        4.4614712615       16.9988146880
  O         4.7328405979        7.2556269232       11.3858779735
  H         4.9048487158        6.2506390079       11.3493434607
  H         5.0432126153        7.6004271303       10.4794885691
  O         0.9258139489        4.6661353920       14.7116803291
  H         0.2791760161        4.5560539232       13.8880626538
  H         0.4187348218        4.5577285916       15.6001621242
  O         0.5229243610       10.0184130504       20.6015660641
  H        -0.3268243942        9.4725725146       20.5515167482
  H         0.6038651961       10.2554445867       21.5852739135
  O         7.5668102312        5.5134382233       19.1127741512
  H         6.6560910634        5.5673629754       19.4981554690
  H         7.5484522122        6.1578716371       18.3456037090
  O         8.2285414440        3.6478132211        8.4199073251
  H         7.7382713548        4.4702541685        8.7432207603
  H         8.4752839548        3.8026710915        7.4484577001
  O         7.3790319223        7.3052514190       16.8528341334
  H         7.9617888120        8.1098519779       17.1835513360
  H         7.4920430496        7.2139496186       15.8368074462
  O        10.6402179442        3.4414026862        9.7776544018
  H         9.8227012637        3.4916448379        9.1840471567
  H         0.8575687561        2.5603374722        9.8376410962
  O         4.9576478144        7.9998874806       17.7783291863
  H         4.5197572541        8.6150412883       17.1167585903
  H         5.8896605327        7.9555558692       17.3454947226
  O         7.1289506132        6.0423404662        8.9912377437
  H         7.3467048944        6.3174866817        9.9238618668
  H         6.3716675400        6.5435713431        8.7051553292
  O         8.9161121374        3.4562996282        5.7038536247
  H         8.2129759600        2.7327819017        5.4785609120
  H         8.6681713939        4.1603427913        5.0415479512
  O         6.8767936472        0.8895444163       11.7278474898
  H         7.5471384421       10.5048408264       11.3232751211
  H         7.2682618418        1.7220200988       12.1559272638
  O         4.9367823239        8.1267342278        8.8914284624
  H         5.7411300737        8.6354745431        8.5173444945
  H         4.2487088854        8.7964984361        8.8195177809
  O         4.0183511595        0.3957979317       20.0211954897
  H         4.1410434684        0.4430109908       21.0514270956
  H         3.5944810479        9.7547755388       20.0530165138
  O         0.6432894487        4.0768472764       20.9677646848
  H         1.4937583880        4.1210597272       20.3762982163
  H         0.1678871618        4.9486228399       20.6506295026
  O         4.0533312078        2.1607494417       12.5825215158
  H         4.3534539932        1.2191257227       12.5480307093
  H         3.6390640655        2.2050174644       13.5319891853
  O         1.1470758969        6.0538019466        9.8123582894
  H         0.9564266746        5.1315633194        9.9788994725
  H         1.7882513310        5.9833906068        9.0172247852
  O         5.7538862482        3.5565346225       14.9260621067
  H         5.1920838419        4.3840800457       14.7735467521
  H         5.2142889541        2.8144626722       15.3642546236
  O         7.2805251098        2.8324779065       19.8985754384
  H         7.4964373220        2.4327055736       20.7808704963
  H         6.5240685552        3.4143466960       20.0629326727
  O         2.5820922814        4.2376385547       19.2553367876
  H         2.8797304324        5.1213313431       18.7382384921
  H         2.5285878399        3.5023539979       18.6415335083
  O         8.4037718476        9.2246631976       10.6891237986
  H         9.3327679041        9.2332239344       10.9928168798
  H         8.0768737123        8.3029276077       10.9073357256
  O         4.7293697548        1.6717910967       16.2069881813
  H         4.4055122657        0.6942035523       16.0426280945
  H         5.3678297591        1.6364360526       16.9988217735
  O         2.5430787423        7.2185374192        5.2342100334
  H         1.8292242176        7.8985180399        5.0722831952
  H         2.2174152454        6.3747830990        4.8608760671
  O         0.7744902206        9.7757201447       11.5680620160
  H         1.3448243189        0.3278096722       11.3529612343
  H         1.4066861000        8.9917003428       11.8556351788
  O         0.6664860696        9.1419399252        7.9429517664
  H         0.7286795102        9.2376993980        7.0054384785
  H         0.2760802549        8.3003988426        8.2018620093
  O         2.2131232851        7.5099503007       11.5147219996
  H         3.1474380201        7.5270835933       11.1883808861
  H         1.6552823213        6.9259303127       10.9371307491
  O         7.0831286887        9.4478484572        8.1223624252
  H         7.4534541115        9.1102854545        7.3686204332
  H         7.6764502584        9.2970672579        8.8825971220
  O         3.0308953668        3.2447455654        8.0254656330
  H         2.6137914288        3.1786674461        8.9224156948
  H         2.8466465912        4.2042134361        7.7799460683
  O         5.4257303830        7.5634814183       20.2919202743
  H         5.0207390845        7.7504046234       19.3888983143
  H         4.8869167181        8.1367291464       20.8746826816
  O         0.2510413960        0.7820556543       14.0984183620
  H         0.9212895303        1.4387381302       13.8295934461
  H         0.0968211701        0.3218393371       13.1772989067
  O         8.6808819817        1.2814974167       16.4013778312
  H         8.0754406926        2.0764500758       16.5250077716
  H         9.1308451840        1.3146690264       15.4911543069
  O         3.2992504373       10.2755797412        8.6433031382
  H         2.4751329313        9.9069059168        8.2318709960
  H         3.9094715457        0.3798499948        7.9607047782
  O         2.3646827155        1.4667395910       18.2472271295
  H         2.8028875032        1.0263727619       18.9756720939
  H         2.9799714142        1.4951820289       17.4990361234
  O         9.5045169292        6.6026531427        7.8307003632
  H         8.6253511551        6.5399453895        8.2243756580
  H        10.0965699137        6.3865488980        8.6548321800
  O         2.9296284011        6.3565474215        7.8078950297
  H         2.7244660358        6.6745617167        6.8946326321
  H         3.7314661850        6.8027315463        8.0996372306
  O         2.3911189713        1.6385885383       10.5937737042
  H         2.9314454326        1.1161335761       10.0133072688
  H         3.0147216226        1.8478973284       11.3189961644
  O         7.5219512965        3.8747874611       16.9481753252
  H         6.8361955388        3.9875723620       16.2741965314
  H         7.2211582684        4.3731284133       17.8055994083
  O         9.7103245002        4.2948922984       12.5345606657
  H        10.2728958454        3.9114625988       11.8051301075
  H         8.8572798152        3.7505639409       12.6256917250
  O         8.8564056724       -0.7359599458       18.1676131065
  H         8.5955243816       -0.0844275924       17.4494752809
  H         8.2144019196       -0.6332231249       18.9723646488
  O         9.8516783441        6.9082927509       20.2117044400
  H         8.9002027362        6.5958784876       20.0993976552
  H        10.0085363772        7.1296112291       21.1814626671
  O         4.6840526371        4.2757236231        5.4073119428
  H         5.3398838092        4.0455525868        4.7644367538
  H         5.0145268469        5.0780142109        5.9599552348
  O         2.1986255300        6.9486679962       14.0318554236
  H         2.1683794259        7.0824543211       13.0874258669
  H         1.5428119386        6.1412878732       14.2864744710
  O         6.0397404695        2.3634901510        9.5481974528
  H         6.7540197757        2.6103133731        8.9092076532
  H         6.4619799873        1.8634579360       10.2921487377
  O         6.0008770364        6.3356179032        6.4468583546
  H         6.9222664775        6.2058841528        6.3941114484
  H         5.6146424534        7.1829147282        6.0229285330
  O         0.6637618130        7.0875123609       17.6459456140
  H         0.6898030365        7.9725472432       17.1884079965
  H         0.4661571203        7.4082314049       18.6072993728
  O         2.4303949909        2.5690430984       14.7216314542
  H         3.0731948771        2.7394589055       15.4663457826
  H         1.8447355692        3.4468129868       14.7294941280
  O         9.6200860336        1.1880228624        8.4286907953
  H         8.7233540779        1.0067384444        8.3472186219
  H        -0.1132565512        0.3347370691        8.5209222518
  O         5.0901481484        8.5944124891        5.2386177006
  H         5.5004593588        8.4276278498        4.3445469006
  H         4.1437053513        8.2995717937        5.0660279420
  O         5.2507979760        4.4926336384       20.1302536036
  H         5.2498605822        4.8877693953       21.0520494290
  H         4.2686983643        4.3972154261       19.9580055703
  O         8.1479525542        6.5598932282       11.4984448199
  H         8.9597895166        6.0161452569       11.6922446080
  H         7.6983651421        6.6558633713       12.4079842065
  K         1.1410485198        2.1742933072        5.9665495169
  O         5.5969240096        9.0727428676       13.3744161484
  H         5.3293950225        8.5240681278       12.5069756586
  H         6.0116348958        9.9166618006       13.0595121448
  O         1.4122521043        8.9136666999       15.5799086728
  H         1.0171167439        9.6769328090       15.0853825519
  H         1.4806451771        8.1142357208       14.9670417027
  O         2.5806393694        8.1523453527       20.3514371718
  H         1.8393179382        8.8330426292       20.4055239609
  H         2.5475984019        7.8037223375       21.2901663892
  O         7.1775508510        7.0997409871       14.0177457100
  H         6.6368113434        7.9658968295       13.7403884038
  H         6.3500765098        6.6068954897       14.2815207133
  O         5.0243648109        1.4778538924        7.0401348664
  H         5.5162372713        1.8738922717        7.7985171749
  H         4.3124045332        2.1728751300        6.9376041680
  O         5.1155655615        4.4904712200       11.1443724381
  H         4.7264546500        3.7365593450       11.6490792869
  H         5.3725800115        4.0245503505       10.2955892185
  O         0.7119737328        9.6244248851        5.0129882522
  H         9.9036184126        9.4684307850        4.9524812414
  H         1.0279445218        9.8016711530        4.0683594863
  O         1.9916294830        4.5506039756        4.9111966293
  H         2.9119317846        4.4094876040        4.8927128001
  H         1.6548758820        4.3408741812        4.0073394529
  O         3.3403409763        5.9596865348       17.3966421076
  H         4.0125013582        6.6734147003       17.5124000266
  H         2.5642293186        6.5736982728       17.2701331140
  K        -0.4291496664        1.9941174391       18.7808609082
  O         6.1186218023        1.0262758709       18.1071008391
  H         6.6604048176        1.5754778602       18.7757208668
  H         5.6084434004        0.3848747698       18.6514236315
     270
 i =     1000, time =     1000.000, E =     -4281.4186476291
 Cu        10.0401980717        0.1062491997       25.0793908800
 Cu         2.2952862063        2.6747796023       24.9690866508
 Cu         9.9779855363        0.3037779273        2.1227962496
 Cu         2.2832551929        2.5563049661        2.2069518761
 Cu         2.3698701858        0.0988556950       25.0429432951
 Cu        10.0226815014        2.8270201458       24.9801062753
 Cu         2.3303776645        0.0506343520        2.1313732832
 Cu         9.9538629583        2.7641485187        2.3174440395
 Cu         3.5901663870        1.2952634547       23.3534689810
 Cu         0.9512555195        3.9442079455       23.1064125340
 Cu         3.6313329106        1.4226752643        0.4147106003
 Cu         1.1286694896        3.8681238652        0.3896686784
 Cu         1.1246165292        1.5252775727       23.1173200425
 Ag         3.6427545728        3.9273331518       22.9686947425
 Cu         0.9972999275        1.3664679283        0.3009781065
 Cu         3.7336137426        4.0140529147        0.3699781192
 Cu         5.0258719245        0.0690647636       24.9442982899
 Cu         7.4481824233        2.7544730133       25.1714168322
 Cu         4.8602584178        0.0975613659        2.2864886531
 Cu         7.4895058874        2.7699571780        2.3122143791
 Cu         7.5654993770        0.0660935269       25.0275213257
 Cu         5.0087612269        2.7038386778       25.0517698345
 Cu         7.4171625217        0.2259920633        2.1757856021
 Cu         4.8215920232        2.7280357278        2.2291380354
 Cu         8.6966629583        1.4780555969       23.2959518198
 Cu         6.2777816082        3.8980439767       23.4087813267
 Cu         8.6340639147        1.5123804418        0.4557326048
 Cu         6.1993382869        3.9401262940        0.4002986482
 Cu         6.1580955301        1.4868861727       23.3401239170
 Cu         8.6722024500        4.1086153742       23.2215708052
 Cu         6.1476099661        1.3627374674        0.4688239230
 Cu         8.7864950872        4.0179117802        0.4622102204
 Cu        10.1173269279        5.3223026279       25.0778926431
 Cu         2.4122666494        7.7586639255       25.1519954426
 Cu        10.0201969744        5.3507256191        2.3723359114
 Cu         2.3391143786        7.7850917616        2.3261729893
 Cu         2.3403967534        5.2627714802       25.0404144746
 Cu        10.0471736441        7.7407903145       24.7828467180
 Cu         2.3405685980        5.1771160573        2.1215031908
 Cu        10.0960478376        7.8381579822        2.1720901333
 Cu         3.7362718835        6.5756202264       23.0887194182
 Cu         1.2927383173        9.0930816889       23.2765381325
 Cu         3.5950799426        6.3861797041        0.3889864155
 Cu         1.0687699726        9.0733663774        0.4257429405
 Cu         1.2477789064        6.4852074253       23.1239087669
 Cu         3.6618491747        9.0074069265       23.3209670660
 Cu         1.0370579437        6.4327805710        0.4433891436
 Cu         3.6698297015        9.0983705676        0.3776974429
 Cu         4.8534623855        5.3603056455       25.0190016458
 Cu         7.4932703299        7.7859168088       25.0211055717
 Ag         4.8869879815        5.3841620878        2.8702668670
 Cu         7.3663913484        7.8113681875        2.3103706267
 Cu         7.4736507877        5.2059266087       25.0437239004
 Cu         4.9247977786        7.8917775964       25.0378371372
 Cu         7.4352524159        5.2629128436        2.1573951072
 Cu         4.8524841243        7.8610816671        2.1693893650
 Cu         8.9552098837        6.4980235678       23.0349177148
 Cu         6.2601696708        8.8394230431       23.1812301743
 Cu         8.7221163843        6.5730382688        0.4646651119
 Cu         6.1609565984        9.1368518655        0.4900115718
 Cu         6.1507486938        6.3997056105       23.3787753525
 Cu         8.7896234871        9.0463921931       23.1747543375
 Cu         6.0944134496        6.6282709303        0.4656782643
 Cu         8.6309918749        9.0957928990        0.4159483374
  O         7.8791758301        9.7785903967        5.4139754797
  H         7.5262294392       10.6652579930        5.2658787036
  H         7.4691976694        9.2913848635        4.6745144267
  O         8.7334803962        6.5915068571        5.3257068796
  H         9.2766711403        6.7709729445        6.1950201586
  H         9.2318504309        6.7000559967        4.5401634042
  O         3.6270988672        9.6449838117       15.6326748999
  H         2.7541103963        9.0751324327       15.4858673635
  H         4.2530835635        9.3653287548       14.8438461627
  O         6.4566235069        1.9192413908        5.0701778872
  H         5.7136268402        1.8334800154        5.6540942736
  H         6.2141116362        1.7878007105        4.1384123069
  O         2.7127655216        0.7443496247        5.2559173750
  H         3.3051587846        1.4544133216        4.7836864320
  H         3.3144072408       10.1555436339        5.1775983375
  O         6.8718538022        3.3364484273       12.7745840823
  H         6.3165858688        3.8481687602       12.1271051807
  H         6.3715727690        3.4953178724       13.6604477017
  O         4.3869089979        5.9242194168       15.0602470399
  H         3.4694614372        5.9265657117       14.5821444014
  H         4.0686365834        6.2217052819       15.9440867713
  O         7.8023208566        9.6634869642       20.7506815628
  H         6.9883950434        9.0942364679       20.6087954077
  H         7.5110432448       10.5740603896       20.9458605359
  O        -0.2577522322        4.4205019493       16.9526036355
  H        -0.1056410150        5.3950814306       17.0790763492
  H         8.9050666501        4.3282040095       16.7908116573
  O         4.0472882670        7.7371986139       11.3620294702
  H         4.3384768225        6.7430032630       11.3835508111
  H         4.3552168252        8.0461032374       10.4095038180
  O         0.7180200654        3.8568168232       14.5696530083
  H         0.0647458146        4.1554961647       13.9265796803
  H         0.2942171382        3.9523676516       15.4428225115
  O        -0.1974419256       10.2636983507       19.4662402142
  H        -0.5392033543       10.3195599755       18.5458751025
  H        -0.9253122083        9.7421306758       19.9605117571
  O         7.5545005349        5.6050214201       18.8457875431
  H         6.7973019283        5.5356158746       19.4369573943
  H         7.5090827043        6.3667050501       18.1518009405
  O         7.7683976612        3.6331642903        8.3080957711
  H         7.4267311378        4.5363254773        8.3668798820
  H         7.8964437358        3.6215352863        7.3204715532
  O         7.4648643029        7.6674233980       16.8383648606
  H         8.0960830612        8.4391441770       16.9120880632
  H         7.3454455275        7.2870082640       15.9451380223
  O        10.1797709844        3.0403272532       10.3148245791
  H         9.6055179208        2.6980000954        9.6781588724
  H         0.6603957055        2.2928441102       10.4783939889
  O         5.0624338217        8.5073300234       17.6626863943
  H         4.5522262761        9.1746639999       17.1557932159
  H         5.9414609640        8.3506602649       17.1206184570
  O         7.1012673372        6.3123299133        8.9276069892
  H         6.8033467466        6.3558034213        9.8084770216
  H         6.4952295996        6.7181639391        8.2767053216
  O         8.4728396649        3.8857370118        5.6696583832
  H         7.8840687094        3.4746780149        4.9824000608
  H         8.5111697247        4.8837081003        5.4062606569
  O         6.3291698701        0.8819615637       12.0004411820
  H         6.9289606683       10.5081280148       11.4580909242
  H         6.7414950006        1.7099377133       12.3190701168
  O         4.3291137630        8.3476083047        8.7952010976
  H         5.1511695538        8.6939931641        8.3860099380
  H         3.7555855685        9.1747626138        8.7416594486
  O         4.1719800849        0.4059734411       20.4163878904
  H         4.4262214573        0.7490769843       21.2991844945
  H         3.5354193829        9.8066244482       20.5066738489
  O         1.1501196678        4.6459780474       20.8349737917
  H         2.0019252784        4.5443025091       20.2596734325
  H         0.6940960742        5.5218645195       20.5467931585
  O         3.5658109397        2.4294242109       12.1872017555
  H         4.3322396142        1.8287660568       12.0569640277
  H         3.1244570237        2.0715357999       13.0128241518
  O         1.0013659448        5.4864619131        9.4484426969
  H         0.6256825261        4.6033519778        9.6211999366
  H         1.8323372988        5.5103946362        8.9169159240
  O         5.6420096960        3.6787010149       15.0834024773
  H         5.1940552858        4.5869904043       15.0532623976
  H         5.0010907760        2.9915095168       15.3981207112
  O         7.5559223248        2.5884941910       20.5392237620
  H         7.9999251310        2.5512407126       21.4332995672
  H         6.9127055769        3.3274163530       20.6661524005
  O         3.5193839172        4.6806766433       19.4923901919
  H         3.4158629138        5.3763319148       18.7269364980
  H         3.1369760005        3.8662146237       19.1326480409
  O         7.7769473699        9.1914715709       10.4635938616
  H         8.7374420091        9.3462568531       10.6138878542
  H         7.7342953356        8.2753825269       10.8997610070
  O         4.2103909298        1.8450267967       16.6948711989
  H         4.0136008663        0.9081180247       16.3589720555
  H         5.1069072653        1.6384179550       17.1882299587
  O         1.9468883402        7.0380993049        5.4210750732
  H         1.2647648152        7.6271359902        5.0459900229
  H         1.8599265910        6.1055195498        5.0413870319
  O         0.0955750353        9.3344984774       11.2891946478
  H         0.7507037220       -0.1458860701       11.0978380108
  H         0.6325742813        8.5087488110       11.4036375823
  O         0.2949393482        9.3635241131        7.6153958933
  H         0.3163287407        9.4243898929        6.5884349909
  H        -0.0935932842        8.5308191576        7.8313786596
  O         1.5269201819        7.0657019948       11.6649305029
  H         2.3962675264        7.4546045781       11.4309686514
  H         1.4081001223        6.4535539445       10.8521094706
  O         6.6261332681        9.6810592148        8.0317571751
  H         7.0266717726        9.3965666472        7.2111234688
  H         7.2534650188        9.4344558638        8.8647950922
  O         2.7203791643        3.1579387839        7.8188455643
  H         2.3607688886        3.2958562389        8.7742438042
  H         3.2585482850        3.9650132634        7.7161852883
  O         5.8212831939        7.9916856479       20.3824613557
  H         5.5073774033        8.4383059108       19.5644558300
  H         5.1880132590        7.9443347163       21.1488248072
  O        -0.2808739096        0.1868497179       13.7807717504
  H         0.5892699320        0.6392121963       13.6845334247
  H        -0.4550905618       -0.1827388162       12.8686420641
  O         7.7560370538        1.3852998826       15.0053901406
  H         7.9161607092        2.1824366619       15.5281948757
  H         8.5814821609        1.2416808549       14.4419300495
  O         2.5759266842       10.3588388574        8.2851117849
  H         1.7275349931       10.0102532027        7.9183471719
  H         3.0495516672        0.6503780915        7.5740142571
  O         2.5417686432        2.1851556090       18.8320866473
  H         3.1477258469        1.6568944946       19.4856060137
  H         3.1311855571        2.1921347956       17.9940109846
  O         9.4548375340        6.9320619670        7.8489998121
  H         8.5669642750        6.8146965513        8.4033056752
  H        10.1734661181        6.4642532847        8.4170110563
  O         2.8322948876        6.2802961684        7.8351223163
  H         2.3974467943        6.4518889064        6.9703911424
  H         3.5105142789        6.9700940423        7.9962723813
  O         1.6340476198        1.2640178885       10.5108705533
  H         1.9935779389        0.9342664055        9.5904565606
  H         2.4394290517        1.5879815156       11.0379062019
  O         7.5297199336        3.6638466591       17.1546891279
  H         6.8296242977        3.6035895624       16.4625775230
  H         7.2885725709        4.4119508754       17.7060415829
  O         9.2862762084        4.5694339776       12.4148795110
  H         9.6191700822        4.1992100909       11.5992842049
  H         8.3786541416        4.1468751800       12.6296852845
  O         8.4797203816       -0.2010553737       17.0705311660
  H         8.1685875925        0.2558214343       16.2534488018
  H         7.7903337888       -0.0235479516       17.7293839498
  O         9.9061563582        6.7853748147       20.1460757643
  H         8.9375096324        6.4958750148       19.8912228252
  H         9.8559560827        7.4465663514       20.8336945583
  O         5.1166417740        4.6499847666        5.4772182449
  H         5.6718170512        3.8510387148        5.2515476578
  H         5.7246470429        5.3990101273        5.8689174436
  O         2.1158479251        6.1017868952       14.0685177714
  H         1.9377288408        6.3543146020       13.1038024447
  H         1.4739567224        5.2552810406       14.2668141140
  O         5.4708632891        2.8148519222        9.5537733927
  H         6.3572302150        2.9729224182        9.1866791182
  H         5.5820358901        2.0059037708       10.0745603792
  O         6.2108112443        7.0293479683        6.4870201655
  H         6.9938110148        7.1195232401        5.9272623949
  H         5.5098076634        7.5288808838        5.9989969043
  O         0.5451149099        7.3598815935       17.5904532072
  H         0.5605966157        8.1764211093       17.0577289459
  H         0.3002183545        7.4709975574       18.4971081655
  O         1.9433313056        1.6119865274       14.1444778469
  H         2.5257598087        1.0781237487       14.8024230198
  H         1.5831194293        2.5125080927       14.4001942116
  O         9.3361293892        1.4714525211        8.0378040797
  H         8.4034178574        1.4198358365        8.1040343579
  H        -0.5326831133        0.5487898622        8.1624798706
  O         4.3344265579        8.7139604137        5.2263945503
  H         4.6944590094        8.9850829158        4.2978016459
  H         3.4942924808        8.2406233951        5.1046922671
  O         5.8070201637        4.6790817956       20.5538840449
  H         5.5894049284        5.2606978598       21.3479476692
  H         4.8577268157        4.4714209763       20.1836368233
  O         7.4891072486        6.7215692006       11.4956820563
  H         8.2395416227        6.0624537823       11.5967043155
  H         7.2591763979        6.7071508328       12.4974389594
  K         0.4753300722        2.3609793816        5.7770421138
  O         4.9918579961        9.1180051267       13.5292793734
  H         4.7065979370        8.6601091868       12.6819482141
  H         5.5093088060        9.9464424440       13.2554061295
  O         1.3103188023        8.4693796216       15.2816870798
  H         0.7118341483        8.9993577354       14.6691274516
  H         1.4186712797        7.5199904979       14.8693441338
  O         2.0922911729        8.8762341727       20.0386538050
  H         1.3272732184        9.5245879552       19.8127336974
  H         1.9599448673        8.4584332033       20.9455908353
  O         6.7578010545        6.8998436175       14.2330278816
  H         6.5266691382        7.8894219078       14.1764424647
  H         5.8861524342        6.4518884525       14.5923616302
  O         5.0977783456        1.3589817536        7.1015466686
  H         5.6722419977        0.7420080692        7.6329603746
  H         5.0644672484        2.1706437514        7.6333257171
  O         4.9414822219        4.8293319586       11.3031976779
  H         4.3815364109        4.3938663751       11.9823251537
  H         4.9531793332        4.1622508232       10.5115835282
  O         0.3732393301        9.2459583542        5.0572490611
  H         9.6376153841        9.4168422973        4.8588910298
  H         0.8803544458        9.2898905430        4.2166924830
  O         2.1827735479        4.2564905403        5.1134142704
  H         3.1754050151        4.3549652866        5.2950121934
  H         2.0877297538        4.0864835779        4.1211579371
  O         3.1644384503        6.5961011175       17.6753670647
  H         3.7626891007        7.3834632991       17.7614150145
  H         2.2231710544        6.9697592851       17.7037087670
  K        -0.0461012184        2.8094577728       19.3018308162
  O         6.4299276683        0.9494934344       18.4009223135
  H         6.8718469766        1.7956906003       18.6900158990
  H         5.8177599634        0.6672566048       19.1370750250
     270
 i =     1500, time =     1500.000, E =     -4281.3746545334
 Cu        10.0639969459        0.2223407934       24.8964369837
 Cu         2.3787580486        2.6990631684       25.0021966226
 Cu        10.1080095668        0.2498294622        2.1237758952
 Cu         2.2808965691        2.7376439452        2.1091238697
 Cu         2.4230013231        0.1644886727       24.9905269720
 Cu        10.1002437031        2.7913106881       25.0961153182
 Cu         2.4724334543        0.1330209020        2.2898569746
 Cu         9.9135360824        2.7253095274        2.1930831191
 Cu         3.7479471639        1.4250972462       23.1959877093
 Cu         1.0662239457        4.0079706503       23.2642285206
 Cu         3.6347391623        1.4386308416        0.4703206094
 Cu         1.2303960175        4.0898896566        0.2711612673
 Cu         1.0791397380        1.5024435621       23.3040413300
 Ag         3.8270546967        3.9994815699       23.0431515296
 Cu         1.1025078716        1.4124023684        0.4246303441
 Cu         3.6958029725        4.0236094370        0.4332855780
 Cu         5.0970870622        0.1505540582       25.1821738964
 Cu         7.5478267305        2.7940489002       25.0932615441
 Cu         4.9870928467        0.2011329742        2.3012729954
 Cu         7.5566243159        2.7667858565        2.2947967555
 Cu         7.5636133290        0.1935071916       25.1286373852
 Cu         4.7787289796        2.6242057564       25.1242475814
 Cu         7.5404473418        0.2713629503        2.2407435022
 Cu         4.8436961737        2.7310837908        2.2182319775
 Cu         8.9266992972        1.5728213125       23.3073557768
 Cu         6.4042173923        4.0255182661       23.1478688560
 Cu         8.6321516637        1.5539411589        0.3400864554
 Cu         6.2835276762        4.0239937392        0.5344477717
 Cu         6.2909312227        1.4534109129       23.4095622053
 Cu         8.8607470779        4.0211710019       23.3167271148
 Cu         6.1379512380        1.5080053480        0.4914926530
 Cu         8.9140445964        4.0790580885        0.3661658279
 Cu        10.2669131202        5.3828015063       24.9496063723
 Cu         2.4629345157        7.7963803311       24.9463238128
 Cu        10.0739784189        5.2749737825        2.1694353909
 Cu         2.3738634128        7.8437165345        2.2865668345
 Cu         2.6133145079        5.2895049805       25.0379660005
 Cu        10.2092412623        7.9188813168       25.0462901560
 Cu         2.5053801367        5.3427927446        2.2163463110
 Cu        10.0048521329        7.7823236832        2.1823318064
 Cu         3.9932660509        6.6504927640       23.0656694860
 Cu         1.2541099613        9.3236886246       23.1305405595
 Cu         3.5931999824        6.6375150626        0.4894900625
 Cu         1.1009850905        9.0463820175        0.5098749248
 Cu         1.4361331274        6.5321569576       23.3271975765
 Cu         3.6345163448        9.0572510461       23.3001343294
 Cu         1.0763581118        6.5042017453        0.3328916455
 Cu         3.6086747882        9.1202546000        0.4690323415
 Cu         5.0130727150        5.2342914549       25.0497534978
 Cu         7.5777085991        7.8268349322       25.0631226682
 Ag         5.0292486457        5.3475020578        2.7442114243
 Cu         7.3872807784        7.7677621212        2.2535484717
 Cu         7.6038668119        5.2390006892       25.0373847079
 Cu         5.0022489098        7.7877218827       25.0562854804
 Cu         7.6575733710        5.3031224604        2.1831971825
 Cu         4.8944676043        8.0098777118        2.1348380014
 Cu         8.9621668252        6.4992401876       23.3241307761
 Cu         6.1665723550        9.0830186208       23.2208511843
 Cu         8.8549474095        6.6495634842        0.3923152298
 Cu         6.2440153974        9.0839723236        0.4481011127
 Cu         6.3838596611        6.5710820885       23.2110241396
 Cu         8.7634761464        8.9619341108       23.3501414009
 Cu         6.2665496935        6.5293783227        0.3816707227
 Cu         8.8338475378        9.3031791390        0.4749759097
  O         7.3923028274        9.1031599949        4.9796661586
  H         6.8753644288        9.9818448811        4.8611152792
  H         7.1607085506        8.5938910828        4.1287099530
  O         8.0351279145        6.0169399962        5.4975201751
  H         8.5051786811        6.3671534661        6.2847577172
  H         8.5316022161        6.3294745816        4.7050202540
  O         2.9374438425       10.5348437823       15.0055895122
  H         2.3918107779        9.7849043857       15.3985071781
  H         3.4984592024       10.0181275525       14.3401466283
  O         6.1586492783        1.3784099263        5.0271871817
  H         5.3395190356        1.1902903218        5.4861525311
  H         5.9878835194        1.6186769754        4.0920598995
  O         2.5563239641        0.5894705627        4.5300738707
  H         3.2442880217        1.2086594404        4.2584332177
  H         3.0499102524       10.0158603283        4.8621519625
  O         6.2318825016        2.9021113171       12.8273174100
  H         5.5898764124        3.3435673389       12.2336614761
  H         5.9104194264        3.3024329577       13.6872234417
  O         4.1056946356        6.2480383795       14.9276750740
  H         3.3409304045        6.3750048696       14.3454982591
  H         3.8334400667        6.3864511994       15.9498207686
  O         8.1385452650        9.6533426472       20.5870766392
  H         7.4950613488        8.9658079415       20.4385397084
  H         7.8820941451       10.0430656592       21.4564259751
  O        -0.3012502254        4.3760950012       17.3496922948
  H        -0.0753368645        5.3955572406       17.5139089672
  H         8.9494566669        4.2420013174       17.3232631145
  O         4.0968371098        7.1546303312       11.4044063618
  H         4.3917716942        6.2175897146       11.5219631744
  H         4.5058478570        7.3525845362       10.5159426989
  O         0.0912839652        4.3813385338       14.8285761427
  H        -0.6967219231        4.4010094786       14.2369316242
  H        -0.1873786647        4.3741236521       15.8668102131
  O         0.0929531702        9.4864892971       18.8469522254
  H        -0.3583498455        9.9133599854       18.1218551807
  H        -0.5253711969        9.4012369763       19.5404501120
  O         7.9557731374        6.5167775167       18.6210501934
  H         7.1244074718        6.3535126235       19.1615622742
  H         7.7681542269        7.3002655926       18.0889868821
  O         7.7433467486        3.3296760242        8.4581000208
  H         7.4489711364        4.2412197754        8.6745257469
  H         7.8162710186        3.3644913136        7.4738936667
  O         7.5957150431        8.4033516619       16.7508097042
  H         8.2762174572        8.9716655958       16.4896458887
  H         7.0569026735        8.3641031859       15.9726714253
  O        10.0152241079        3.5240295582       10.1401366014
  H         9.3524077197        3.1262155282        9.4109638103
  H         0.4200463473        2.7768853788       10.3021443040
  O         4.5288168490        8.9794112400       17.4023307424
  H         4.3740490422        9.0016512172       16.4060399837
  H         5.5359335553        8.9403873252       17.3351048324
  O         6.5029635460        5.7655983131        8.8899430447
  H         6.0429670870        6.1292973468        9.6657894005
  H         6.0139613737        6.1740227761        8.0960669473
  O         7.9162672240        3.3949589832        5.9938652654
  H         7.2484071194        2.8901095616        5.4767515310
  H         7.9549614806        4.4224814987        5.7063702916
  O         5.9544620650        0.6559456289       11.1908131801
  H         6.7609160327       10.3177792306       11.1036368056
  H         6.2289925874        1.3978019213       11.7204873029
  O         4.3173903530        7.6088504803        8.7166646544
  H         5.1178743777        8.1137601820        8.3066145248
  H         3.6144219074        8.4226810575        8.9494342733
  O         4.5164550535        0.4195533872       20.4669535743
  H         4.9183174979        0.5543225490       21.3822869311
  H         3.8134692772        9.9543324681       20.7007713403
  O         1.0992978962        4.6920334575       21.0583075171
  H         1.8939521653        4.9482850345       20.6013793150
  H         0.4207831494        5.4696752920       20.8138086156
  O         2.9719648402        2.1414757793       12.6913835189
  H         3.5930899579        1.4917292920       13.0312766941
  H         2.0722281327        1.9843313087       13.1201198192
  O         0.7270385070        5.7273558304        9.1617941425
  H         0.4810510432        4.8404670374        9.5025717758
  H         1.6104864230        5.6011693731        8.6437804840
  O         5.5309467206        3.9088077241       15.0778890953
  H         4.9543634899        4.6921911449       15.0312806376
  H         4.9118302923        3.2385487961       15.5070935512
  O         7.4284002355        2.6898724682       20.1672636120
  H         7.3592526162        2.1763199379       21.0326569985
  H         7.0871271368        3.5551178236       20.3939541179
  O         3.7496827705        4.7661336470       19.6272693530
  H         3.6088365315        5.3654810972       18.8239944645
  H         3.5277673069        3.8050808100       19.3225033726
  O         7.7080420579        9.0226743247       10.4682944440
  H         8.7514745904        9.2209568509       10.5381262187
  H         7.5450714042        8.2110042996       11.0007923655
  O         4.2936507635        2.0746900090       16.5132498435
  H         3.9084722454        1.2825226475       15.9615202394
  H         5.1092790402        1.6712177429       16.9616041095
  O         1.4249064148        6.4619288946        5.2464193561
  H         0.9951056034        6.8907561063        4.4470449128
  H         1.5379375879        5.5246869383        4.9418090432
  O        -0.1142120666        9.3187492375       11.2111408791
  H         0.4307927534       -0.1336687093       10.9227745324
  H         0.5251231356        8.5316630370       11.3498144229
  O         0.2618115651        8.9545689993        7.6270893062
  H         0.2178658379        9.0720374531        6.6112018326
  H        -0.3154988572        8.1253070754        7.7613729484
  O         1.2327538330        7.2194241418       11.2261487969
  H         2.2306337378        7.3675690591       11.2741266962
  H         1.0936987375        6.6034624242       10.4090222489
  O         6.5241469977        8.9117618732        8.2090318410
  H         7.0451040361        8.7935805951        7.4072245073
  H         7.0410826066        9.1170559560        9.0088917584
  O         1.9352240346        2.9697027027        7.4742854422
  H         2.0208349261        2.9363303520        8.4707048007
  H         2.6481119062        3.4686940770        7.1299438803
  O         5.5805996957        7.8884850365       20.2485494343
  H         4.6275421746        8.1389369295       20.2013020183
  H         5.4823052357        7.5883739659       21.1934953384
  O        -0.7187031635       -0.2159927468       14.0151810450
  H        -0.1208547319        0.6194748495       14.2320082877
  H        -0.5439294039       -0.5262617249       13.0708545431
  O         6.9398511844        0.8207539440       14.7362469125
  H         6.6663416594        1.3956907230       14.0520284529
  H         7.8084709022        0.4662440521       14.4069331863
  O         2.6163735244        9.8214807529        8.7473478862
  H         1.8772118631        9.4281748198        8.1601938652
  H         3.2307593193        0.1271611303        8.1425800008
  O         2.9704190096        1.9990444794       19.0008254761
  H         3.6297887914        1.5616018138       19.5451256706
  H         3.4677956558        2.0283570428       18.0828735768
  O         8.9876956971        6.7955678089        7.9404580940
  H         8.1936184796        6.7479516016        8.5344965114
  H         9.7247599186        6.2340044595        8.3218020301
  O         2.7162292003        5.8396421066        7.5149432457
  H         2.2958071620        6.3316441917        6.7488165269
  H         3.4837198592        6.5074566332        7.8979764154
  O         1.7926757644        1.7479458720       10.2359808696
  H         2.1698083631        1.0287471152        9.6075273705
  H         2.2369340812        1.5983500180       11.1171338505
  O         7.1940392466        3.8902107006       17.1918193294
  H         6.8370462372        4.0883221785       16.3061721580
  H         7.2513279815        4.6973354100       17.7385423291
  O         8.6480479033        4.3116940222       12.5903723173
  H         9.0690030505        3.9665228319       11.7388197044
  H         7.7143901371        3.9589181881       12.5865122322
  O         8.8790238534        1.3849452733       17.4369069444
  H         8.5552807878        1.8500564398       16.6290119136
  H         8.0972660623        0.9888325983       17.8242691952
  O         9.9888989197        6.6975032944       20.4438981243
  H         9.2041449624        6.6242574645       19.8116481635
  H         9.7044504715        7.2322388215       21.2254459504
  O         4.4827605143        3.8470219528        5.7423662590
  H         5.2110497568        3.4169836217        5.2902570763
  H         4.9152121162        4.7148057236        6.0968699586
  O         1.6260675692        6.1843580493       13.7493785632
  H         1.2015502082        6.4641445427       12.9146369063
  H         0.9373555376        5.4932530116       14.1603257800
  O         5.2004579503        2.4612032187        9.2508212698
  H         6.1012161841        2.9029031020        9.0634831044
  H         5.3836280327        1.6856224923        9.8981992847
  O         5.5746203323        6.1737975233        6.4436893154
  H         6.3849938330        6.3197217698        5.7934807299
  H         4.9017568205        6.7933147788        6.1041044069
  O         0.8401522623        6.9892611973       17.5884223018
  H         0.9020914389        7.3710327622       16.5901567865
  H         0.6012301429        7.8314715521       18.0587215165
  O         0.8493818622        1.8320955399       14.4639655282
  H         1.6553247515        1.5748237924       14.9732682597
  H         0.5864797752        2.8059863633       14.6750063238
  O         9.4187519283        1.1287013748        8.5269839032
  H         8.4326331903        1.0606868387        8.2299425760
  H        -0.4855222461        0.1953000336        8.2393942272
  O         3.8615920721        8.2811461891        5.0957936977
  H         4.2570702180        8.2354853698        4.1424177744
  H         3.0515674935        7.6524292468        5.0664144901
  O         6.2960003292        5.0090561362       20.1459126076
  H         6.3139681892        5.4663638074       20.9894383381
  H         5.3306296734        4.8195397533       20.0025360404
  O         7.2083894804        6.7841728654       12.0628653207
  H         7.8314128833        5.9645520104       11.9939328336
  H         7.3100627962        7.1544588864       12.9802801845
  K         0.0155398411        1.9854129141        5.6952012636
  O         4.6529752995        9.4029322217       12.9712515491
  H         4.2376007849        8.6148538928       12.5086934424
  H         5.1624192948        9.8728047606       12.2418566273
  O         1.3056206765        8.2084559713       15.2410324823
  H         0.5138313849        8.6907903711       14.9970904527
  H         1.4593731582        7.3717780028       14.6353288200
  O         2.0566776970        8.5464129681       20.5047258524
  H         1.5866363866        8.9760240288       19.7613838285
  H         1.7001183830        7.5820269739       20.4728967565
  O         6.3064036843        7.8491281175       14.5523744401
  H         5.9810427736        8.5873849051       14.0013117957
  H         5.5236662088        7.1836829387       14.6107956836
  O         4.4830459568        0.8121650667        7.3997868696
  H         5.2465013305        0.2297274957        7.5077934190
  H         4.6999758821        1.5723933167        8.0532768004
  O         4.3122624274        4.0790100208       11.3622457698
  H         3.5588189494        3.6224494307       11.7705296086
  H         4.4839245861        3.5458940583       10.5144381406
  O        -0.3881486640        9.5381727164        4.9768633745
  H         8.9142230838        9.2912212854        4.6914817553
  H         0.1368085465        9.2750040930        4.2146628648
  O         2.0554119237        3.9671512075        4.7944553600
  H         3.0462445166        3.8181508610        4.9937289370
  H         1.8863724598        3.7740799528        3.8697294134
  O         3.3826319348        6.5315444951       17.5861180277
  H         3.7836882898        7.4304319295       17.6059040231
  H         2.3948374504        6.7146574861       17.7130916000
  K         0.2123343600        2.3138790387       19.4588957397
  O         6.3548845901        1.0931603396       18.3475187086
  H         6.6547185430        1.7365093265       19.0016345740
  H         5.9032146570        0.4271242110       18.9039038553
     270
 i =     2000, time =     2000.000, E =     -4281.4072073910
 Cu        10.2692909096        0.3073326710       24.9423286308
 Cu         2.4315073316        2.8272926430       24.8760434952
 Cu        10.1039414513        0.2296115856        2.0588021575
 Cu         2.4502499168        2.7598517365        2.2085999205
 Cu         2.4043370907        0.2791213373       25.0604088316
 Cu        10.1970828239        2.8850411691       24.9714028489
 Cu         2.5048476240        0.0356454534        2.2370521866
 Cu        10.0842978107        2.7137816163        2.2044566625
 Cu         3.8488855564        1.2918555060       23.2638474734
 Cu         1.1048639415        4.1545428131       23.0960134814
 Cu         3.7559974892        1.5494404240        0.4783252460
 Cu         1.2245259927        4.0544481607        0.4112662119
 Cu         1.1542293127        1.5778810157       23.1603954406
 Ag         3.8771010874        4.0145970734       22.9787507438
 Cu         1.3170149454        1.5542453137        0.3239933462
 Cu         3.8257066576        4.1865094561        0.4896243262
 Cu         5.0058254578        0.3320552513       25.1645203063
 Cu         7.6424163484        2.8025485013       25.0536535618
 Cu         4.9932073995        0.2708751047        2.2912480956
 Cu         7.5173033526        2.7625486092        2.2850925398
 Cu         7.6434877478        0.2240361924       25.0144265158
 Cu         5.0149259442        2.7394933174       25.1578926801
 Cu         7.5312085978        0.2645530210        2.1774800117
 Cu         5.0750628277        2.7155607156        2.3308370106
 Cu         8.9477651306        1.5758356384       23.3156467036
 Cu         6.4214593585        4.0016808307       23.2876361627
 Cu         8.9834224902        1.4153012401        0.3490771722
 Cu         6.3335942469        4.0646973828        0.5190347733
 Cu         6.3261179392        1.5135283579       23.2889474537
 Cu         8.7962084696        3.9781949486       23.1966714828
 Cu         6.3803894169        1.6392890775        0.4783711357
 Cu         8.8470065145        4.0495948402        0.4985423201
 Cu        10.2055867506        5.3419945277       24.9770318052
 Cu         2.5797805986        7.9883644431       25.0336817804
 Cu        10.2479708289        5.3618558868        2.1322748395
 Cu         2.3758849717        7.9325197269        2.1770246571
 Cu         2.4839262327        5.3548635426       25.0178791337
 Cu        10.1427950688        7.8518134419       24.9852435089
 Cu         2.4775275195        5.4528393669        2.1151489837
 Cu        10.1045281544        7.9635662153        2.2010458040
 Cu         3.9308631328        6.7007805534       23.1214400353
 Cu         1.2717560805        9.3981670749       22.9833468606
 Cu         3.7551440191        6.6539617368        0.3868044163
 Cu         1.1625095282        9.0314261437        0.3953769212
 Cu         1.5078673266        6.7292720116       23.2820294491
 Cu         3.8245723016        9.1949254512       23.2261041390
 Cu         1.1914131752        6.5569165273        0.3456919182
 Cu         3.7696390957        9.1576344289        0.4654946158
 Cu         5.0130687939        5.2921411292       25.1362821845
 Cu         7.5761578188        7.9565108635       25.0149174261
 Ag         5.0051254017        5.2170149853        2.6386125750
 Cu         7.5867069213        7.7377061682        2.2829676129
 Cu         7.5308203535        5.3769026514       25.0540056061
 Cu         5.1713092879        7.8631584909       25.0664390746
 Cu         7.6561050770        5.3356026659        2.3787204322
 Cu         5.0851972915        7.9667338324        2.2503890071
 Cu         8.9616762655        6.5699298901       23.1535029140
 Cu         6.2698074457        9.1302753746       23.2839471614
 Cu         8.8600009867        6.6169199651        0.3453399117
 Cu         6.2916844517        9.1772083704        0.4600648505
 Cu         6.5380269681        6.4846324760       23.2629459279
 Cu         8.9800731184        9.2736859752       23.2304902223
 Cu         6.3258668654        6.6817137679        0.5139481964
 Cu         8.9314358919        9.1385844109        0.4295990289
  O         6.7094574922        8.7377693206        5.6479460122
  H         6.5345471114        9.6868078352        5.4389847062
  H         6.2096822347        8.1711620692        4.9980226482
  O         8.0549446882        6.0186341963        5.4191486200
  H         8.4928777417        6.3240986325        6.1955904917
  H         8.7706890251        6.0588878031        4.7864756598
  O         3.3249051472        9.5007862301       15.5486550549
  H         2.3637080296        9.2028918543       15.5820812003
  H         3.5696012152        9.2764970997       14.6348595150
  O         6.5455696556        1.1552951643        5.2091703334
  H         5.7059044682        1.3456840206        5.7305199910
  H         6.3167749570        1.2148407198        4.2445223370
  O         2.4240960795        0.2926525122        4.7281996811
  H         3.1874826404        0.8762342946        4.4826722781
  H         2.7920790910        9.6496537609        4.6493096693
  O         6.2960809376        2.9455021190       12.9274305254
  H         5.9216743754        3.6108495000       12.3443809319
  H         5.9046827970        3.2502832377       13.9019750638
  O         3.7586861964        5.6960360341       14.9428743298
  H         2.9181476057        5.8807117556       14.3484950289
  H         3.3254060509        5.7991784869       15.8344337791
  O         8.1570683560        9.3967194350       20.5124710395
  H         7.2678326877        8.9896707822       20.3535595258
  H         7.9361832245       10.0505428365       21.2506837939
  O        -0.2272435765        4.0457600025       16.9520190046
  H        -0.0165937516        4.9620599162       17.2860524266
  H         8.9371797980        3.9947810528       16.9854290055
  O         3.9198385314        6.9860166960       11.4925701429
  H         4.1148180775        5.9908445240       11.2788994362
  H         4.2050910354        7.5213778351       10.6982005242
  O         0.3642899525        3.9041095537       14.4108173682
  H        -0.4687271599        3.8991510025       13.7679182275
  H        -0.0185293023        3.8312504511       15.4619104818
  O        -0.3936646297       10.2447549517       18.6422148003
  H        -0.8736559981       10.0739210329       17.7821923663
  H        -1.0448016913        9.9074898806       19.3284337823
  O         7.2438103092        5.7367932395       18.6696698160
  H         6.4657154269        5.6878347697       19.2877097106
  H         7.1503027350        6.6235450309       18.0851362980
  O         8.1608301171        3.3274627225        8.2805901896
  H         7.8382427488        4.2359831019        8.3280115683
  H         8.1051432169        3.1563854495        7.3187835016
  O         6.6554000865        7.7896104404       17.2454494610
  H         7.2050396229        8.6526435409       17.2116695475
  H         6.6078290983        7.5128985166       16.3057645251
  O         9.8185944878        3.2499339677       10.3520676301
  H         9.3276774590        3.0778497006        9.5113148849
  H         0.3094523726        2.4476080391       10.3377772327
  O         4.1396458139        8.5478146105       17.8368528866
  H         3.9687539271        8.9796716576       16.9106297987
  H         5.0826107465        8.1449148838       17.6878079986
  O         6.5045149455        5.8487385700        8.7018685291
  H         6.0644890176        6.5014967193        9.3498534403
  H         5.9724827069        5.8841226253        7.9196275385
  O         8.3625770671        3.3220191358        5.5451593244
  H         7.5642927943        2.8302858337        5.3698754089
  H         8.1439731971        4.3078217337        5.3713175075
  O         5.9370844526        0.5973699804       11.6125319471
  H         6.7043136725       10.2571925257       11.4188420628
  H         6.1651535175        1.3660472642       12.2274460618
  O         4.2933663513        8.1120351099        8.9150158347
  H         5.1775525401        8.3870646153        8.6322108311
  H         3.8203487465        8.9830114522        8.8265903720
  O         3.7207249586        0.0605205152       20.0956083640
  H         3.7129857931        0.3216431878       21.0594772423
  H         2.9680583467        9.6738925668       19.8543775940
  O         0.8975609539        4.9521728880       21.0721747674
  H         1.7519906466        4.9070200820       20.5220624870
  H         0.3755278635        5.8013265505       20.8961443414
  O         3.3693120096        2.0035591283       11.8090068618
  H         4.2088390234        1.4715708615       11.9341258333
  H         2.9208669851        1.8571409313       12.6987937280
  O         0.4791416128        5.5694678544        9.6047245359
  H         0.1976012202        4.5682113659        9.7252774517
  H         1.2621469397        5.6690162444        8.9465455953
  O         5.4963358735        3.6688989778       15.3847977674
  H         4.8045661058        4.4135262513       15.2469908196
  H         4.8500207229        2.9187818653       15.6554210487
  O         6.9634718263        2.6116746948       20.1922253880
  H         6.8516681165        2.6353279305       21.1787409813
  H         6.5538652887        3.4668458978       19.9008870084
  O         2.9456987247        4.5191207247       19.5184100738
  H         3.1590063765        5.1068339565       18.7375993025
  H         2.7716279022        3.5950321076       19.2430077311
  O         7.5785530847        8.7891921849       10.8061489109
  H         8.5777750946        8.9615442996       11.0630002535
  H         7.3899357704        7.8969218348       11.1608010147
  O         3.9755456384        1.6869758237       16.7009104457
  H         3.7339245479        0.8259996037       16.2392368067
  H         4.6665274524        1.4810921380       17.3756041811
  O         1.1360439541        6.8353170359        5.2259659129
  H         0.7045313953        7.1434858456        4.3065263256
  H         1.0682378989        5.8642339975        5.0146252143
  O        -0.0233127884        9.3401530583       11.2754350599
  H         0.4750138395       -0.1104564188       10.8157232641
  H         0.5425771451        8.4821780907       11.3195856227
  O         0.5804466423        8.9248169590        7.3237674502
  H         0.1094178475        8.9858676756        6.4046824312
  H        -0.0905918459        8.3585428210        7.7944375763
  O         1.2506833226        7.0412730142       11.6424701064
  H         2.2890393766        6.9833400314       11.5692823931
  H         0.9279529663        6.4369146570       10.9305670060
  O         6.7237440344        9.1511983691        8.1879810585
  H         7.1545535486        8.6885168790        7.4368728462
  H         7.1990548502        8.9665727906        9.0442945713
  O         1.5012710571        3.0294404314        7.6741921445
  H         1.1192648896        3.0999938068        8.5298093379
  H         1.9484619445        3.8285008575        7.5019387295
  O         5.7355713100        8.2208456772       20.5255328911
  H         5.0887822591        8.8719020757       20.1567744197
  H         5.5497814311        8.2312201188       21.4829180812
  O        -0.0016667459        0.0451007820       13.8188677668
  H         0.7520315767        0.7404229297       13.9537495417
  H         0.1195504376       -0.4259168028       12.9573788322
  O         8.2317680656        1.6585067141       14.9503490352
  H         7.5950347937        2.2475060446       14.5878159791
  H         8.7774792919        1.3016417884       14.2083968322
  O         2.6468844652       10.2145365880        8.3286158218
  H         2.1311079178        9.5574787878        7.8133369003
  H         3.1489223275        0.5032702793        7.6562699798
  O         2.0780612543        2.1416515010       18.7042647162
  H         2.5139955805        1.4671975554       19.3389977176
  H         2.4864837095        1.9894361339       17.7981101489
  O         8.9248799578        6.8837116876        7.8922514265
  H         8.1171000221        6.7641219774        8.3898466354
  H         9.5654019792        6.3785125224        8.4590577587
  O         2.2689929338        6.2821659464        7.7851315878
  H         1.8079540964        6.8118696376        7.0801512691
  H         3.1233365528        6.7752577456        7.9523597878
  O         1.4319408037        1.2401570141       10.3161525457
  H         1.8208399334        0.8526785771        9.4386422602
  H         2.2368654589        1.2786876472       10.8915742973
  O         7.3513231744        3.5363699470       17.4317382469
  H         6.6845041144        3.2774436132       16.7721618369
  H         7.2218192185        4.5404786401       17.7542693235
  O         8.8528852909        3.9827175695       12.6682889185
  H         9.2920946265        3.7765657736       11.6835982486
  H         7.9874552341        3.4104313245       12.6886190225
  O         7.7884538095       -0.1024589646       16.8560026775
  H         7.9441246366        0.4799160220       16.1071701113
  H         7.0555001612        0.4069502576       17.3860128849
  O         8.9205835086        6.6527897371       20.7393721753
  H         8.2881994690        6.3321082210       20.0668467640
  H         8.5892861066        7.6041138233       20.8710055248
  O         3.7879597367        3.8677920727        5.3716734864
  H         3.8146860592        3.7436183660        4.4129158327
  H         4.5904608410        4.4139755049        5.6678208615
  O         1.2585812009        6.3541577332       14.2814808254
  H         0.9621284817        6.6500532201       13.3663021677
  H         0.9093098863        5.4354713453       14.2997560074
  O         5.6119633196        2.7765460679        9.4432609818
  H         6.5155243022        3.0411888197        9.2870298542
  H         5.6432649160        2.0350901531       10.1603621091
  O         5.4422045932        5.7514012460        6.3343248993
  H         6.1970821101        6.0425192709        5.7130589744
  H         4.7021041285        6.3928369038        6.0402521792
  O         0.3192077424        6.6936627393       17.7352060841
  H         0.1460324555        7.3252092407       17.0271340146
  H         0.4354734241        7.2249555298       18.5406438403
  O         1.7921328346        1.8999294390       14.1729571749
  H         2.3170055864        1.8687184227       15.0045292875
  H         1.2061629532        2.7346959262       14.2205095293
  O         9.2420527729        0.8958397945        8.1229815028
  H         8.2924816496        0.6186665949        8.1183195234
  H        -0.4994997052        0.0320025954        7.9725336597
  O         3.6990339421        7.6579444902        5.1508643571
  H         4.0987271033        7.7037494535        4.2513053397
  H         2.7528528097        7.2365491675        5.0045676947
  O         5.4510466964        5.2692712484       20.4545546720
  H         5.3771723143        5.4978458750       21.4898489331
  H         4.6819698394        4.6765665664       20.2301152281
  O         7.0143210541        6.2801319792       11.9849607861
  H         7.7018940525        5.6253565031       12.1944438810
  H         6.5814462718        6.5024960426       12.8736923874
  K         0.1453337031        1.7094336327        5.5007223756
  O         4.5909150877        8.9765380060       13.2249045819
  H         4.2533464351        8.2182363593       12.7511082587
  H         5.0198045382        9.5491462863       12.6081908858
  O         0.7250928531        8.5646793005       15.7822214671
  H         0.3192933907        9.2531117033       15.1585377775
  H         0.8162863749        7.7474818642       15.2192327162
  O         1.3118007985        8.3364208800       19.8154781373
  H         0.7630409087        9.1088250894       19.4825684292
  H         0.7939200061        8.0347516529       20.5705932057
  O         6.0435445133        6.8393972450       14.4523941565
  H         5.8929826499        7.7509001446       14.0942589672
  H         5.1049333472        6.5659690298       14.6873699324
  O         4.4860925788        1.5381879792        6.8929822571
  H         4.7949170866        1.8226121558        7.7474790732
  H         4.1069533468        2.3860178618        6.5272723618
  O         4.4900740761        4.4535285904       11.3854346448
  H         3.7799692017        3.7999935787       11.4055143532
  H         5.0630069573        4.1350537009       10.6357231706
  O        -0.7297487714        9.1665120040        4.9628771061
  H         8.5221358595        8.8683773069        5.1730154698
  H        -0.7741562631        9.1392536277        3.9992966991
  O         1.1838921138        4.1780242139        5.0383071394
  H         2.1510766576        4.0725409086        5.3125899548
  H         1.3271931935        4.1757183082        4.0323142887
  O         2.9606758541        6.2001089894       17.4120112100
  H         3.3435879242        7.1072164674       17.5240399010
  H         1.9760252129        6.2417843504       17.2932808240
  K        -0.4706741318        2.6196414749       19.7242483146
  O         5.7883141819        0.8903168645       18.5136819904
  H         6.1264824195        1.3840295917       19.3009761257
  H         5.0859273297        0.2800496817       18.8450184159
     270
 i =     2500, time =     2500.000, E =     -4281.3824418105
 Cu        10.0894358492        0.1994666546       24.9686438989
 Cu         2.6213402197        2.9007867744       24.9309833606
 Cu        10.2494201373        0.3890106187        2.1962483173
 Cu         2.5161846418        2.7378831770        2.0616009962
 Cu         2.4934524007        0.3068729089       24.8744243510
 Cu        10.2370084777        2.8196909294       25.0055799225
 Cu         2.4063751705        0.1216223353        2.2274913608
 Cu        10.2920889978        2.7776738712        2.2298772864
 Cu         3.7815376730        1.4920483798       23.3030568717
 Cu         1.0696228764        4.1958753135       23.0857259008
 Cu         3.7130754271        1.5006685456        0.4278992090
 Cu         1.2152160170        4.0982259159        0.3496201693
 Cu         1.0782456108        1.5443284364       23.0339500624
 Ag         3.8922473103        4.1383796428       22.9775712737
 Cu         1.3111879367        1.5693360706        0.3337910539
 Cu         3.7362416535        4.0278520678        0.4456534299
 Cu         5.0559365419        0.1547720789       25.1672041446
 Cu         7.5990379007        2.9073672921       25.1105960451
 Cu         4.8341182314        0.1492431893        2.3787073232
 Cu         7.6796548132        2.6851719413        2.2566417606
 Cu         7.4733531025        0.2750274892       25.1229873618
 Cu         5.1307945288        2.6598082025       25.0471029194
 Cu         7.6657877118        0.2299984848        2.1645889641
 Cu         5.0924694482        2.6382472048        2.2679928178
 Cu         8.8679290825        1.6075838252       23.2647026996
 Cu         6.4102977317        4.1452003336       23.4873229864
 Cu         8.8960992881        1.5249384683        0.3598562746
 Cu         6.2449791408        4.0649778364        0.4722298678
 Cu         6.3618173823        1.5679411958       23.1590003645
 Cu         8.8843677464        4.0181969457       23.2764094456
 Cu         6.2615795201        1.4365477287        0.4881413203
 Cu         8.7938096685        3.9537730197        0.5735267013
 Cu        10.0906993781        5.4056958201       25.0122569958
 Cu         2.4940182415        7.8793188898       25.0586980982
 Cu        10.0435707410        5.3069666120        2.1583900164
 Cu         2.4105286250        7.9506737297        2.1925566932
 Cu         2.4806979527        5.3590572667       25.0485388672
 Cu        10.0561292579        7.9918712180       25.0317559240
 Cu         2.2848217410        5.4427828298        2.1856281782
 Cu        10.0763070076        7.8732859456        2.2495238727
 Cu         3.6742900150        6.6848419133       23.3118597306
 Cu         1.2251011420        9.1739318119       23.1061866564
 Cu         3.6998062055        6.6229219482        0.5542849219
 Cu         1.1079762093        9.2378262567        0.3642448368
 Cu         1.2156511878        6.7006487823       23.2903787702
 Cu         3.8545584238        9.0115503411       23.2764339479
 Cu         1.1449970260        6.7517399892        0.4187373214
 Cu         3.6152680818        9.1488337914        0.3645947095
 Cu         5.0272534425        5.2365857200       25.1717996401
 Cu         7.6264673982        7.9756023080       25.0507198167
 Ag         4.7903909826        5.2379359461        2.5213816401
 Cu         7.4970066578        7.8692795866        2.1642678724
 Cu         7.6192675999        5.4325179029       25.1632803434
 Cu         5.0557234175        7.7674989106       25.1164284061
 Cu         7.5800294850        5.3605973220        2.2581209593
 Cu         5.0133537911        7.9057306877        2.2323573608
 Cu         8.6846810752        6.6974368869       23.1312830644
 Cu         6.3211601789        9.2541437519       23.4895404620
 Cu         8.9045240293        6.5336151082        0.4500714843
 Cu         6.1825304020        9.1912966753        0.4829505323
 Cu         6.2345612367        6.5285299107       23.4041474116
 Cu         8.9957883616        9.2872144557       23.3599947275
 Cu         6.2481381791        6.6248339771        0.5237825401
 Cu         8.7581399954        9.1716886210        0.4697026675
  O         8.0220809447        9.1029372732        5.4510091973
  H         7.5606555368       10.0011798076        5.2310926505
  H         7.5803022678        8.4641597881        4.8697142739
  O         8.4005782022        6.0264095988        5.1980176316
  H         9.0653236514        6.4543782504        5.8039770552
  H         9.0017229093        6.0610304018        4.4408398044
  O         3.8877663811        9.0667854898       15.4829291114
  H         2.9415466907        8.9319913530       15.2354728160
  H         4.3106939817        9.0757790886       14.5516291992
  O         6.5036141367        1.0827156639        5.1328562431
  H         5.8572756371        1.1405207519        5.9394091625
  H         5.9229042444        1.0803792953        4.2745969016
  O         2.7309409423        0.9554955442        4.6637915318
  H         3.2634900440        1.4303439164        3.8637573770
  H         3.3669803864       10.7400424542        5.2050856429
  O         6.4762152445        2.9515620618       12.8199387491
  H         5.7545331051        3.5584544795       12.4701967133
  H         6.3449455295        2.7539862679       13.8000012992
  O         4.0227891876        5.3482149669       14.9841194748
  H         3.3211794616        5.6445042578       14.3395072255
  H         3.5037620968        5.4249002553       15.7944514994
  O         7.6679107775        9.2522371111       20.2840324523
  H         6.6564000311        8.8670185064       20.2187140518
  H         7.8509821667        9.6439093584       21.1879398175
  O        -0.2808266642        4.5656066129       16.8583639140
  H        -0.2385181277        5.4735322850       17.2118492835
  H         8.9485205800        4.3116967776       16.7702057669
  O         4.1313720382        7.0435506359       11.4930656311
  H         4.4288259764        6.0837956296       11.6977377402
  H         4.5136025635        7.3248094806       10.5890289260
  O         0.3218250200        3.8968292724       14.3032799051
  H        -0.4604314740        4.1469194153       13.6215467380
  H        -0.0306327814        4.2054552478       15.2261516426
  O        -0.6564345972       10.2747677594       18.4541141446
  H        -0.9781660723        9.8299953653       17.6039861889
  H        -1.3587003459        9.8840378469       19.1616762510
  O         7.9445698589        5.1672169719       19.2330983816
  H         7.0210823788        4.9585176585       19.4464307409
  H         7.8904360497        5.7667815906       18.4776902042
  O         7.5451547832        3.7337101158        8.4476478935
  H         7.2766451835        4.7011843233        8.4070345876
  H         7.7134170263        3.5191138593        7.5249810473
  O         7.5252058478        6.6855564857       16.7396904683
  H         8.0677027769        7.5276864907       16.6062878031
  H         7.2282327624        6.4167237874       15.8427868625
  O         9.7752129051        3.4665224064       10.0038760518
  H         8.9058033246        3.5410695084        9.5269457127
  H        -0.1898817510        2.4954932078        9.9155734784
  O         5.0111495897        7.5917165588       17.4079560379
  H         4.6966480459        8.2154095014       16.6943340560
  H         5.9066315760        7.3134052472       17.0635100557
  O         6.9094374778        6.2566731199        8.7070960873
  H         6.6364042550        6.3929858910        9.6519479035
  H         6.2738593828        6.3724562994        7.9472908827
  O         8.0482262110        3.2610480030        5.9409970135
  H         7.3383238603        2.7171212782        5.5177317219
  H         8.0326458604        4.1276978048        5.4074468586
  O         6.0439953082        0.5319782484       11.5478544360
  H         6.7496690840       10.1008037852       11.1805119468
  H         6.4234940140        1.2363701562       12.1121137058
  O         4.2425501140        8.3278182818        9.1629309507
  H         5.1174733642        8.8260139956        8.7988146679
  H         3.5103178095        8.9267996065        8.9626480177
  O         2.8733867697        0.5898445752       20.4544627268
  H         2.8203530929        1.0037395227       21.3482981266
  H         2.3905323355        9.9977309972       20.3884635613
  O         1.2336822187        4.6500558058       20.8426297593
  H         2.0752004715        4.5013971326       20.2944191663
  H         1.1333718224        5.6395786197       21.0536894658
  O         2.9664558626        1.9855334678       12.1477379212
  H         3.8581967976        1.5158780478       12.1517008622
  H         2.5617129352        1.8751361273       13.0768968434
  O         0.8867573348        5.6231634335        9.5499738526
  H         0.7306822056        4.6560952580        9.8735337422
  H         1.6345284994        5.6478619065        8.8091204565
  O         5.4153919081        3.1952903471       15.3383493556
  H         4.9225672590        4.0314066490       15.1187490268
  H         4.7798209426        2.4589639278       15.6708295721
  O         7.1386423273        2.1377353947       19.9684422701
  H         7.3915357477        1.7170235952       20.7981469424
  H         6.6644222584        2.9111019194       20.2775498246
  O         3.1707570161        4.1212208864       19.1882505371
  H         3.0023317066        4.7193952977       18.4473999353
  H         2.8008229454        3.2063520478       18.9717391330
  O         7.6260535483        8.6956520462       10.4420014607
  H         8.6118818053        8.8872857361       10.5737041842
  H         7.6332056888        7.8128943345       10.9704942213
  O         3.8934704378        1.2293402201       16.6362618413
  H         3.8791450466        0.3072667715       16.2339487361
  H         4.3596148606        1.2461957032       17.5325674178
  O         2.1801794276        7.2105425720        5.5877930004
  H         1.5181416049        7.9707427583        5.3059820425
  H         2.0085241206        6.3379304508        5.2274244828
  O        -0.0913153856        9.6281830711       11.3766891386
  H         0.3713434831        0.1806776563       10.9201583407
  H         0.4381740231        8.7927108202       11.2833784244
  O         0.2878066310        9.2624857983        7.9476355176
  H         0.3294058531        9.4126645021        7.0092890062
  H        -0.0071742862        8.2623744212        7.9770215587
  O         1.5317087642        7.3485747106       11.3315947897
  H         2.5711630979        7.2677747356       11.3161881475
  H         1.4510602860        6.6056733771       10.6070816077
  O         6.6223738427        9.4501165465        8.2093536922
  H         6.9260384768        9.3048756528        7.1877349594
  H         7.3133254859        8.9918715046        8.7125746540
  O         2.3290206391        3.4784755325        7.8323486558
  H         2.7136873412        3.1338663374        8.6558183111
  H         2.8511191984        4.3297721600        7.7044534089
  O         5.2364394840        8.1907968702       20.0222293545
  H         5.0023768885        7.8028413400       19.0902559826
  H         5.0027856298        7.6373516721       20.7108427341
  O        -0.0545539954       -0.1142548331       13.9166746658
  H         0.5672218473        0.7253604217       14.0312433660
  H        -0.1476809789       -0.3018714735       12.9178975455
  O         7.8173567173        1.0403518954       14.4861263471
  H         7.9809521008        1.7350827064       15.1250740187
  H         8.6564755374        0.4831117375       14.3962522899
  O         2.6394465030       10.1982510917        8.3206975264
  H         1.8450069929        9.7084535739        7.8750952982
  H         3.1852671347        0.4924185004        7.6089744731
  O         1.9093701251        2.0171197443       18.5468307693
  H         2.1111181824        1.2890601237       19.2127850508
  H         2.3385877449        1.6239266386       17.7056223313
  O         9.5177561694        6.9372616540        7.8483786524
  H         8.5568801064        6.7738128673        8.0605774215
  H        10.0541542008        6.3378066228        8.4922076948
  O         2.9525011827        6.2750817807        7.9379708748
  H         2.7439402772        6.7485678846        7.0859853132
  H         3.3819430690        7.0044950314        8.4670709621
  O         1.1699354941        1.3525487018       10.4436955149
  H         1.5495533272        0.9595473155        9.6055841732
  H         1.9552307866        1.5683348095       11.0245097619
  O         7.6842409954        3.2587862964       16.4497424368
  H         6.6556534816        3.2936080612       16.0144906654
  H         7.4542522081        3.1268193675       17.4020461286
  O         8.8472267503        4.2842314158       12.4399078471
  H         9.2273243926        3.8824089731       11.4929357570
  H         8.0301766725        3.6807347718       12.5679072504
  O         7.6247693812       -0.6848097219       16.6764903639
  H         7.5376718395       -0.0661630925       15.9615957917
  H         7.0165568051       -0.4739144327       17.3978817610
  O         9.0399280697        6.9629394369       20.8577142794
  H         8.7107440754        6.2787878860       20.2537963533
  H         8.6645662772        7.8094891003       20.4368281802
  O         4.1768263148        3.8974223641        5.3440074319
  H         4.3448524181        3.7963949251        4.3688230267
  H         4.7341541112        4.5914272999        5.7369772185
  O         1.7862406622        6.0613075988       13.6690135888
  H         1.5626838975        6.5056962121       12.8100090340
  H         1.1397490045        5.3516969973       13.8735026154
  O         5.2724485836        2.6030478382        9.3722614059
  H         6.1428063342        2.9942065579        9.0987103989
  H         5.3189799182        1.8765334646        9.9812271205
  O         5.7292044429        6.2975841029        6.1805059971
  H         6.6001544876        6.3866505845        5.6822534796
  H         5.2877511283        7.1976015058        6.0299684230
  O         0.7649559778        7.0757526697       17.5558940441
  H         0.7423765990        7.7678747164       16.8051815650
  H         1.0211405415        7.5760355626       18.3973423570
  O         1.7094862793        1.8185519951       14.3478104258
  H         2.0422677117        1.8141822856       15.2388429641
  H         1.1542333265        2.7174821571       14.3613570801
  O         9.1177644413        1.2192410414        8.1725084734
  H         8.2649957644        0.9835395279        8.6325427157
  H        -0.4898743382        0.4040659669        8.3475284363
  O         4.3771790858        8.5645494635        5.3449683760
  H         4.5766233411        8.9585901243        4.4777739148
  H         3.5161166150        8.0761565716        5.1880627479
  O         5.4860116286        4.4411006681       20.1737909994
  H         5.3140129534        4.8570313412       21.0916412273
  H         4.5533219697        4.3953290898       19.7560035362
  O         7.2053853093        6.2126817290       11.5841559969
  H         7.9433627442        5.6022920973       11.9099705956
  H         6.7169095002        6.1979162745       12.4615292625
  K         0.3325205762        2.2513132523        5.9136367044
  O         5.0759557888        8.7795289099       13.2124204612
  H         4.6566408590        8.1608278562       12.6000320190
  H         5.3782883565        9.5033798923       12.6049917970
  O         1.2248664207        8.3813317571       15.3405488570
  H         0.7087769214        8.9456320743       14.6180328563
  H         1.4399331635        7.5911562510       14.7495550788
  O         1.1488083257        8.6215592346       19.7041506484
  H         0.4780269574        9.2311816881       19.2633317662
  H         0.5428180870        8.1666101329       20.2970268982
  O         6.2412002424        6.4435442380       14.0271944621
  H         6.0532610939        7.4855487470       13.8279210657
  H         5.4263361325        6.0693101055       14.4273896422
  O         4.5212094121        1.7551226467        6.9794112705
  H         4.8594132900        1.9116256138        7.9045276718
  H         4.2296289129        2.6153669771        6.6320341341
  O         4.4782340141        4.2649891207       11.5418663508
  H         3.6544762112        3.7599004577       11.7978555748
  H         4.7448563908        3.9663230735       10.6636728493
  O         0.4357276002        9.3570472557        5.2637703086
  H         9.6868569195        9.3089074754        4.9419671153
  H         0.8379970959        9.7390370373        4.4302875004
  O         1.6187405668        4.6261733219        5.2730390303
  H         2.6007837738        4.4015925207        5.3818571808
  H         1.5679582569        4.3522619758        4.3061802557
  O         3.0829836892        5.8316080158       17.2784887406
  H         3.9019089207        6.4331659213       17.4137057086
  H         2.2362580480        6.3972136579       17.3632640811
  K        -0.5052739926        2.7135759368       19.4866130509
  O         5.0304744223        0.6737117324       18.8723852647
  H         5.7016416338        1.0247008287       19.4664375637
  H         4.2359512814        0.5913804034       19.3992235933
     270
 i =     3000, time =     3000.000, E =     -4281.3880766832
 Cu        10.0793192786        0.2757455977       25.1181159135
 Cu         2.4667362209        2.7497792731       24.9906284615
 Cu        10.1747611320        0.2186241409        2.2068548123
 Cu         2.5031254254        2.7834758396        2.1046188780
 Cu         2.3804957601        0.1589359208       25.0335611656
 Cu        10.0103409210        2.7649631679       24.9103317616
 Cu         2.4339689764        0.2323750208        2.0764589387
 Cu        10.1515784808        2.7580262114        2.3401126406
 Cu         3.8066923617        1.4600751710       23.3486136772
 Cu         1.0027611188        4.0041138451       23.0947124260
 Cu         3.6920300274        1.4819469752        0.3486641805
 Cu         0.9613161392        4.0174034895        0.3102271620
 Cu         1.1973861865        1.4254440794       23.2239854857
 Ag         3.6584131712        4.1718798277       22.9946998500
 Cu         1.2157111817        1.5853565054        0.3889199427
 Cu         3.5699174194        4.1318572024        0.3466071398
 Cu         5.0075314987        0.0702469558       25.0913419231
 Cu         7.5151365804        2.7565411215       24.9890454480
 Cu         5.0248789339        0.2444499644        2.1260113535
 Cu         7.5105922178        2.7671697869        2.2306163425
 Cu         7.4807762273        0.3439148220       24.9783388945
 Cu         5.0231429976        2.7877598043       25.0508558942
 Cu         7.7131151765        0.2762197694        2.2820547233
 Cu         4.9595312028        2.5591200905        2.1591634599
 Cu         8.9060979431        1.4789927199       23.1251580625
 Cu         6.1919932642        4.0345152951       23.3109681011
 Cu         8.9727679364        1.4321981044        0.4153351689
 Cu         6.2679557608        4.0992805474        0.4064137386
 Cu         6.2417838729        1.5675599919       23.2688371549
 Cu         8.7025859130        4.1722763601       23.2635111365
 Cu         6.3526420946        1.4636583006        0.4796365573
 Cu         8.8136864079        3.8681333842        0.4653090114
 Cu         9.9608570754        5.4054188025       25.0306428685
 Cu         2.3396074140        7.9100918933       24.9784065424
 Cu         9.9024665125        5.2969331850        2.3231000724
 Cu         2.3568773462        7.9429763806        2.2028075306
 Cu         2.2628858743        5.2502271067       24.9915882221
 Cu        10.0182669548        7.8849593482       25.0767503972
 Cu         2.1251499269        5.3833912801        2.2074890821
 Cu        10.0251932249        7.8260223551        2.2294766828
 Cu         3.7440090950        6.6788933526       23.1613439928
 Cu         1.1114422300        9.1462005352       23.0865529553
 Cu         3.6587577656        6.5663431523        0.3762637570
 Cu         1.0068063966        9.2825832499        0.4461485185
 Cu         1.0229482346        6.6500999090       23.3823106162
 Cu         3.5301251663        9.2413003803       23.2610760308
 Cu         1.1025386005        6.5982266954        0.4243165808
 Cu         3.6739444390        9.1560584254        0.3171105280
 Cu         4.8409181358        5.3888240522       25.0391466728
 Cu         7.4778699300        7.9839868246       25.0547347359
 Ag         4.7946076768        5.3453219277        2.4793450356
 Cu         7.4353442754        7.7944644887        2.3311972234
 Cu         7.5473222007        5.5291091994       25.1460713889
 Cu         4.9633973338        7.8159847896       24.9725952383
 Cu         7.5537803434        5.1860243265        2.3019463656
 Cu         4.8564556034        8.0213067679        2.2163030561
 Cu         8.7416689465        6.6487837661       23.1562944929
 Cu         6.2422837605        9.2656427887       23.1730211302
 Cu         8.7229691418        6.6693520196        0.5976680976
 Cu         6.3687028476        9.2297192132        0.5665667407
 Cu         6.2679685926        6.6223883923       23.1757300062
 Cu         8.7668735632        9.1422794569       23.1993684373
 Cu         6.2054593399        6.7179005961        0.4604490722
 Cu         8.7648424424        9.1910982103        0.4311000769
  O         8.1345138485        9.3920902803        5.3857049066
  H         7.5468331824       10.1592573538        5.2040869122
  H         7.7737996151        8.7134924337        4.7304221005
  O         8.3695828589        5.9485341595        5.3301731691
  H         9.0671319455        6.1818393555        6.0236121417
  H         8.7897606076        6.4614379362        4.5348940357
  O         3.4330488490        9.4861575445       15.5395053170
  H         2.5851715969        9.0785155963       15.6615704257
  H         3.7932578845        9.2903593470       14.6593061063
  O         6.4436185758        1.4261509470        5.2837170324
  H         5.7761512904        1.5817555077        6.0016318251
  H         5.8861854433        1.2882089125        4.5200555516
  O         3.3134342300        1.0197018619        5.0899572910
  H         3.1186965292        1.0986539364        4.1193932913
  H         3.7310352312       10.2981704164        5.0734710581
  O         6.8523501435        3.1006823113       12.9054310444
  H         6.2189061393        3.4535484843       12.2424318446
  H         6.3990761060        3.0083352056       13.7783248986
  O         4.3765358160        5.5740059967       14.5088119171
  H         3.5540876070        5.9661111421       14.0451618896
  H         4.1266820922        5.8686515127       15.4534532152
  O         7.5779096767        9.3221460398       20.2441559965
  H         6.8197296129        8.7273077113       20.0995624778
  H         7.2217530291        9.9041435663       20.9627812604
  O        -0.4693282870        4.5053651053       17.0093387492
  H        -0.3973260375        5.4833499777       17.1619521162
  H         8.7890008153        4.3027205849       16.8312249418
  O         4.3235134374        7.0741792428       11.4120608331
  H         4.5419319186        6.0985133323       11.1967715730
  H         4.7374680369        7.5753604869       10.5303454774
  O         0.6263225044        4.4751801586       14.7004030123
  H        -0.1088020094        4.4116091462       13.9814869105
  H         0.1739603829        4.4927197856       15.6572559540
  O        -0.5170905999       10.1637045372       18.6319522909
  H        -1.0893025414       10.0527229708       17.8507800300
  H        -1.1255053434        9.9674701065       19.4339126615
  O         7.3850991656        5.3381413717       18.9663943373
  H         6.4589539693        5.2569300607       19.3400975002
  H         7.4472896486        5.8790248775       18.1151216098
  O         8.0891313920        3.3975690263        9.0166065057
  H         7.5827839891        4.2770517166        9.1506063918
  H         8.1893145079        3.3746848499        8.0460367187
  O         7.0353531389        7.2460088870       16.8652742561
  H         7.3996433987        8.1968960128       16.8213061421
  H         7.1762100663        6.8246165032       15.9617820452
  O        10.3666679027        3.3843227263       10.4053721811
  H         9.4487299043        3.3261060626        9.9327422074
  H         0.6419231407        2.6226784567       10.1686024655
  O         4.7667846525        7.9273333155       17.8451096593
  H         4.3978680254        8.5296025027       17.1986241729
  H         5.7294340661        7.6776790020       17.4751879537
  O         7.0808373540        5.8930659491        8.9893825321
  H         6.9623685094        6.0892437229        9.9340769786
  H         6.4222749556        6.3343367761        8.3109916602
  O         8.4660670732        2.9294428983        6.3329814226
  H         7.7382473231        2.4706894311        5.9877554092
  H         8.5739252112        3.7597237973        5.8714031515
  O         6.6781650303        0.4600952742       11.7495097270
  H         7.5082173784       10.1626176317       11.4724186243
  H         6.8757805807        1.0964003203       12.4572384744
  O         5.2410300746        8.3687897813        9.2971956171
  H         6.0615031342        8.7644528475        8.7867498071
  H         4.4529052010        8.9646885790        9.0869198561
  O         3.3714871628       -0.1731701812       20.1591062913
  H         2.9342344226        0.1297178875       21.0187186455
  H         2.8296958692        9.3022738905       19.8987114062
  O         0.6765910664        4.6172217169       20.9161461291
  H         1.5391599745        4.6987049421       20.3930865949
  H         0.3724383059        5.5527208544       20.9983192973
  O         3.6253316472        1.4589334341       12.3218322550
  H         4.2192138059        0.7066397410       12.4850173220
  H         3.2635142669        1.7046177786       13.2502605510
  O         1.1576039587        5.8346037804        9.3103625001
  H         1.0460607185        4.9482294164        9.7914282673
  H         2.1045595665        5.7857379850        8.9781883466
  O         5.4533413616        3.0921967191       15.1496304552
  H         4.8617205525        3.8659307999       15.0411101680
  H         4.8849111885        2.4125312566       15.6412138206
  O         6.9872262451        2.4678845027       20.4242256378
  H         7.0528124681        2.3640693210       21.4096938910
  H         6.3030485289        3.1976005987       20.3816754355
  O         2.7130144653        4.4316122879       19.3267903652
  H         2.8520508343        4.7976391268       18.4125799073
  H         2.6994259203        3.3653295625       19.1926355875
  O         8.4209125541        9.0601006975       10.6748145662
  H         9.3603871092        9.2288458346       10.8911616104
  H         8.2466531339        8.1275418779       11.1262118217
  O         3.6250852788        1.5811317597       16.6703653577
  H         3.5195223742        0.6824779718       16.3023891009
  H         4.3133685217        1.4283947412       17.4781844096
  O         2.2251488670        7.3478518600        5.5147571309
  H         1.6327675611        7.8462359320        4.9233951651
  H         2.1714828669        6.4019410853        5.2020251392
  O         0.6419671342        9.7530425966       11.1998626436
  H         1.0835871586        0.3474791078       10.7198401085
  H         1.3612928535        9.0707198842       11.4285820161
  O         0.8897182845        9.0249601681        7.5668922484
  H         0.6632000506        9.2889654147        6.5952785966
  H         0.6545544991        8.0566580566        7.4947244780
  O         1.8190428033        7.4122077220       11.5351062876
  H         2.7916675753        7.3318697618       11.3298644636
  H         1.3193264718        6.9497205153       10.8043884430
  O         7.3693658457        9.3219092735        8.2745787365
  H         7.6610169973        8.7184465146        7.5582079501
  H         7.8276930702        9.1640898354        9.1878090854
  O         3.2311024427        3.2017230497        8.1179393249
  H         3.2934125058        3.3682839240        9.0588032228
  H         3.5648659321        3.9722003090        7.6808342276
  O         5.6145093160        7.6750912498       20.4081805576
  H         5.1324755321        7.8870226827       19.5045699685
  H         5.0346669773        8.0910245370       21.1020375863
  O         0.0162881571        0.3688520765       13.7456552163
  H         0.7526571654        1.0474775750       13.7942371062
  H         0.2266658544        0.0169943556       12.8574327112
  O         7.8447952003        0.8808479213       14.5968581030
  H         7.5952049549        1.7803805756       14.8188427648
  H         8.7518183345        0.7856814973       14.1875694821
  O         3.1801284901       10.0071327074        8.5505294979
  H         2.4451562860        9.5136467535        8.0300654430
  H         3.7968322569        0.3022577583        7.8891200024
  O         1.9485085258        1.9639597338       18.7805776601
  H         2.3461794539        1.1081660255       19.0668990567
  H         2.3330015904        1.9592613310       17.8257043173
  O         9.7209487994        6.6586381360        7.7235189792
  H         8.8729171066        6.5699981229        8.1500537871
  H        10.3121910410        6.0897357446        8.3318462534
  O         3.4936728161        6.3427268689        8.0489432860
  H         3.2810754182        6.7557682411        7.1495129545
  H         3.9635346402        7.0810222884        8.4563260007
  O         2.0938946076        1.6137873103       10.3016523872
  H         2.5613834603        1.0629288887        9.5782444436
  H         2.7709660081        1.5298333626       11.0931267303
  O         7.3681527761        3.5367163923       17.0512430720
  H         6.6211057451        3.3118956744       16.4408636774
  H         7.1145982799        4.0451821437       17.8484437817
  O         9.2282285888        4.3072168955       12.5518527856
  H         9.5681229899        3.6334965655       11.9475943946
  H         8.2939657348        3.8872312996       12.7890938243
  O         7.5575424983       -0.4009443406       16.8115108153
  H         7.5987771214       -0.0158280332       15.8074254334
  H         7.0055708764        0.2313833683       17.2602282473
  O         8.9918329901        6.7851772852       20.7710818895
  H         8.3522911281        6.2648834026       20.1110388749
  H         8.6153075389        7.7777100112       20.6749065327
  O         4.6928393499        4.1792934648        5.8474282993
  H         5.2689396115        3.5929244661        5.2931895525
  H         5.2707886930        4.9940367168        5.9971947828
  O         1.9036651147        6.6442501320       13.9655202231
  H         1.9220983456        6.8583212987       12.9765278864
  H         1.2162001163        5.8954219410       14.1066021544
  O         6.1409331976        1.9221689100        9.7349106281
  H         7.0132703417        2.3000835202        9.2911924925
  H         6.3323943602        1.2622141175       10.4203804587
  O         5.9933613059        6.3593960430        6.3287026227
  H         6.8848764532        6.2020246327        5.7520531161
  H         5.6056724188        7.2648780107        5.9801098088
  O        -0.1466978914        7.0908110953       17.2949140446
  H         0.1464492579        7.8509991916       16.6613368537
  H         0.1776016140        7.4065787533       18.1827272249
  O         2.2105574338        2.1880879522       14.4317785472
  H         2.6372010693        2.2113156808       15.3729518520
  H         1.6822482210        3.0627827579       14.3593870177
  O         9.6395793079        0.9471737270        8.1963855068
  H         8.7170309054        0.6560089121        8.1879496079
  H        -0.1108854454        0.0284326810        8.1951504096
  O         4.5453842125        8.6999255536        5.3702860815
  H         5.0985705561        8.8075167653        4.5853469918
  H         3.7753018391        8.0825557832        5.1383160367
  O         5.2559082566        4.7202866012       20.3035352238
  H         5.1400864531        5.4261061371       20.9892703608
  H         4.3090413501        4.6101408221       19.9575669597
  O         7.7573410172        6.4557639017       11.4458577545
  H         8.6012329135        5.8860106857       11.6736096073
  H         7.1917291571        6.4042952769       12.2647770163
  K         1.0510193321        2.0640694947        6.3304211307
  O         4.9830632979        9.1500241060       13.0031891708
  H         4.9161497737        8.3042858422       12.5756400398
  H         5.5590983133        9.7701145475       12.4260312533
  O         0.8742910788        8.6486174060       15.4642026628
  H         0.4080131851        9.2867157588       14.8663349554
  H         1.1406084195        7.9148835854       14.8318497664
  O         1.4761752221        8.0225448368       19.7734199046
  H         0.8662286894        8.6674682551       19.4445574433
  H         1.2994131199        8.0476020853       20.7495823906
  O         6.6075204832        7.0146030796       14.0482982229
  H         6.2977366932        7.9374237806       13.9051824847
  H         5.7633153074        6.5345027649       14.1730493394
  O         4.9861326966        1.2709094020        7.3567962837
  H         5.5543957656        1.3365011079        8.1146787550
  H         4.4793494649        2.1608602029        7.5439026664
  O         4.9179886027        3.7971015487       11.0388966784
  H         4.1936704418        3.2920940931       11.4527695128
  H         5.2812225770        3.0398944557       10.4698278862
  O         0.4663950609        9.7984591887        5.0643128398
  H         9.6836819378        9.6909364369        5.0873842468
  H         0.8580199129        9.8668233534        4.1398742621
  O         2.0088916586        4.6046393960        5.1393814937
  H         2.9397438199        4.2679323838        5.2950152054
  H         1.8366031573        4.4482383731        4.2187183318
  O         3.0324348766        6.0321232095       17.0107802724
  H         3.6080711210        6.7548547495       17.4544706580
  H         2.1247279413        6.3080862180       16.7527038437
  K        -0.7823666009        2.6566126695       19.5261435511
  O         5.2395201683        1.2769847822       18.7152125377
  H         5.9354046037        1.7283769351       19.2499248117
  H         4.8742587698        0.6826676752       19.4426191154
     270
 i =     3500, time =     3500.000, E =     -4281.3845230884
 Cu         9.8876052916        0.2379681452       25.0954687411
 Cu         2.2689379695        2.7116571522       25.0478955252
 Cu         9.9410902420        0.0992758687        2.2888049499
 Cu         2.2315758713        2.6029495460        2.1808606451
 Cu         2.2885340492        0.2273314854       25.0652931245
 Cu         9.9206993722        2.7799139652       25.1013449433
 Cu         2.3272863105        0.2324206193        2.2062036304
 Cu         9.8757078180        2.7551607681        2.3560338478
 Cu         3.5108290558        1.4458928691       23.2753693990
 Cu         0.8718083738        3.9275503157       23.1257849682
 Cu         3.5851229089        1.5753899827        0.3424041214
 Cu         0.8631956139        3.9390980992        0.4344897557
 Cu         1.0486769836        1.4381346708       23.2805678347
 Ag         3.5035092639        4.0466427423       23.1470868474
 Cu         0.9280136141        1.3901503649        0.5386818382
 Cu         3.6054340922        4.0394663065        0.4173109388
 Cu         4.7658708155        0.3705586836       25.0494519482
 Cu         7.3156929153        2.7809277443       25.0727962229
 Cu         4.9687324158        0.0709835790        2.1034914344
 Cu         7.2764432295        2.7770206119        2.2882489141
 Cu         7.3989805983        0.2096566693       25.0132760634
 Cu         4.8487076961        2.8249990751       25.0787910922
 Cu         7.5550376259        0.0688019855        2.0522395432
 Cu         4.6395032296        2.6829425512        2.2987455067
 Cu         8.5067503557        1.4395197097       23.2510885478
 Cu         6.2687798993        3.9511410318       23.1521475205
 Cu         8.7366878687        1.4537465156        0.4647644529
 Cu         6.0775052300        4.1068065193        0.4925243745
 Cu         5.9660064740        1.4453481009       23.2225498108
 Cu         8.6604616903        4.0255554245       23.3394424319
 Cu         6.1443523124        1.4232644648        0.5204425224
 Cu         8.6883566314        3.9042285101        0.4305231487
 Cu         9.9780873616        5.3063815252       24.8735721344
 Cu         2.1249961976        7.8587698264       25.0024359259
 Cu         9.9172853395        5.2702148252        2.1865372195
 Cu         2.3182581746        7.8359567708        2.3169115412
 Cu         2.2821563761        5.3761854325       25.1914915425
 Cu         9.9002190963        7.8401921030       24.9135735778
 Cu         2.1139247588        5.2355085370        2.0710543272
 Cu         9.8985471258        7.8556987597        2.2596441172
 Cu         3.5828822595        6.6907316465       23.2503503102
 Cu         0.9057592614        9.1840727484       23.1727862808
 Cu         3.4984833416        6.6093690908        0.4243059954
 Cu         0.9751206495        9.0787220975        0.3563855265
 Cu         1.0623474130        6.5904637658       23.2925335315
 Cu         3.4281236144        9.0746305886       23.2743095968
 Cu         0.8905719429        6.5988013450        0.4683449178
 Cu         3.5125316440        9.0149509208        0.4029362593
 Cu         4.9293168724        5.3338179010       24.9837291543
 Cu         7.4441239801        7.9333301290       25.0524983022
 Ag         4.9017012953        5.3279847207        2.5911640371
 Cu         7.3486814663        7.8033818584        2.3580688189
 Cu         7.3189565519        5.3030755876       24.9304037484
 Cu         4.8751471496        7.7856812511       25.1042446814
 Cu         7.4856487814        5.1424359178        2.2662437692
 Cu         4.7679671933        7.9306962486        2.1690041072
 Cu         8.6210441073        6.5888227624       23.1226092661
 Cu         5.9642369004        9.2475640253       23.3568461491
 Cu         8.6300299897        6.4953438038        0.4094717265
 Cu         6.0138180046        9.1371513156        0.3484942969
 Cu         6.0506129187        6.6894697511       23.3485653932
 Cu         8.5173350278        9.2000637604       23.4529914561
 Cu         6.1715296672        6.6329133899        0.4272848111
 Cu         8.6940114554        8.9857570858        0.4322098197
  O         8.3922128962        9.0627646681        5.4863782294
  H         7.8312049880        9.8158842156        5.1820866407
  H         8.1725269976        8.3526876772        4.8295747754
  O         8.6916418353        6.0079330014        5.2264197626
  H         9.4478421695        6.4099204976        5.7286650160
  H         8.9090361646        5.8799393142        4.2286429360
  O         3.9571121412       10.0027412006       15.3114371409
  H         3.0638092154        9.6868592681       15.4213931741
  H         4.2251717321        9.7746120794       14.4470440248
  O         6.9894220795        0.9658641130        5.0578359535
  H         6.3786224323        0.9820148990        5.8268300946
  H         6.4372375307        1.1837711863        4.2673749919
  O         3.2518364238        0.1851743139        5.3189164839
  H         3.5110094982        0.6339554924        4.4518757479
  H         3.7770736071        9.5311393494        5.3004791697
  O         6.4324721219        2.6766926180       13.5345247063
  H         5.5660118894        2.5736427037       13.0495638267
  H         6.2085763811        3.3712584805       14.2387464247
  O         4.9587731704        6.5477944891       14.9235442913
  H         4.1751783262        6.4853012724       14.3195848713
  H         4.5882144254        6.7582400473       15.8749969517
  O         7.8616430282       10.0725830029       20.6063990061
  H         7.2508536557        9.2978594005       20.3919169272
  H         7.6391856603       10.1732227214       21.6184437927
  O         0.2471773196        4.4297561229       16.8284578971
  H         0.6853358677        5.2632811042       17.1807249347
  H         9.4826247723        4.5615000928       16.8878730288
  O         4.9502689950        7.0211308426       11.4065504827
  H         5.2132064837        6.0623063666       11.1950850753
  H         5.4006893776        7.5156946518       10.6811213559
  O         0.3317889051        4.6009162600       14.1231277400
  H        -0.4402297282        4.4549883411       13.5521716941
  H         0.1021787231        4.5648472003       15.0770411293
  O        -0.0345156799       10.2947836691       19.6369230375
  H        -0.2540588093       10.3072598236       18.7403864383
  H        -0.9842349440       10.1831583965       20.0943055447
  O         7.9415155869        6.5219427549       18.8345184725
  H         7.1724288149        6.6442132230       19.3526239241
  H         7.9671806283        7.3437116674       18.2125309257
  O         8.6474529583        3.7016643542        8.2533436301
  H         8.3297248933        4.6086309782        8.3475956449
  H         8.9100627041        3.6554320778        7.2813704293
  O         8.2206287013        8.0524791407       17.0022371695
  H         8.4019050083        9.0651526096       17.1271793500
  H         8.1420809924        7.8895203973       15.9530906497
  O        10.3869694634        3.3943630268       10.4923480465
  H         9.9660992168        3.3731713705        9.5670319203
  H         0.8421760417        2.6395128154       10.5140400430
  O         5.5769228413        9.0687124967       17.5883551135
  H         5.0975404502        9.4413322829       16.7502087289
  H         6.2921087624        8.4607760698       17.1984244230
  O         7.5413644146        6.1629566873        8.6360227295
  H         7.2881321971        6.4554983294        9.5361178743
  H         6.7997972069        6.0785061521        8.0536826719
  O         8.7912443402        2.7654650005        5.4292158527
  H         8.1389168348        2.0697903170        5.1269007493
  H         8.6402669934        3.4224015825        4.7195993443
  O         7.2213506462        0.3884610816       11.4298710821
  H         7.8290406033        9.9025719704       11.0354281526
  H         7.6128013321        0.3977811095       12.3936044931
  O         5.0492802069        8.5303886395        9.3360351548
  H         5.8536717606        8.8161587354        8.8311780114
  H         4.3982903502        9.1385267487        8.8842320534
  O         3.8566051024        0.4110511932       20.0252893865
  H         4.0195014523        0.3705862168       21.0506405282
  H         3.1042418107       10.0129564432       19.8806208179
  O         0.9422024312        4.6437155691       20.9781193240
  H         1.9152038069        4.8880044570       20.7566454024
  H         0.4033009206        5.3885823349       21.1146145583
  O         3.7272319345        1.8700720287       12.4797167193
  H         4.0330249540        0.9890227495       12.7713730889
  H         2.9268500148        2.1281759837       13.1229796412
  O         1.4179014758        6.0462844111        9.9840279632
  H         1.2528861930        5.1318146297       10.4352567785
  H         2.2766187456        5.7379524026        9.6026044460
  O         6.0006918919        4.2235635799       15.5069219258
  H         5.5247393347        5.0696891781       15.0925988689
  H         5.2774671057        3.6844792055       15.9596896131
  O         7.1765713836        2.6983815183       20.0574619948
  H         6.9550188887        2.2472703411       20.9641616997
  H         6.7531695465        3.5999024820       20.1537587527
  O         3.3586319154        5.0941534410       20.1784285646
  H         3.3529168403        5.7273460640       19.4352922992
  H         3.4598239232        4.2205325545       19.6741988665
  O         8.7696969014        8.8292090413       10.3716499004
  H         9.6525768131        9.1859647218       10.7380928852
  H         8.7284833556        7.9506523337       10.8305554637
  O         4.3318159865        2.2674815579       16.6609850405
  H         4.3146550408        1.5327329531       15.9786884217
  H         5.1214934514        2.0234663562       17.2275662027
  O         2.6022209369        6.8322232370        5.4203834976
  H         1.7471344485        7.1722179772        5.0752699448
  H         2.5338695094        5.8410458797        5.2307862527
  O         0.6022785506        9.7722685882       11.5050800945
  H         1.0932403610        0.1621149093       10.9409024605
  H         1.3445317679        9.0566445305       11.6138016542
  O         1.3397413828        9.0329873975        7.3995341824
  H         1.1850151831        9.0257806053        6.3955668844
  H         0.7317717163        8.2775988200        7.7023994528
  O         2.3857044758        7.7501533480       11.6661670484
  H         3.3837307529        7.8567080373       11.4323070024
  H         2.0752570102        7.1234868129       10.9433138442
  O         7.3328815966        9.3023328643        8.1713023252
  H         7.5720317549        8.8932855972        7.2994366061
  H         7.9491915825        8.9455258272        8.8727873337
  O         2.4663204165        3.2883161248        7.9635806412
  H         2.5951626894        2.8097975711        8.8331694402
  H         2.9212914279        4.1042624299        7.9382316004
  O         5.7132781660        8.2324575115       20.3605016964
  H         5.0496623205        8.9908012132       20.1167725891
  H         5.4480296954        7.9673428226       21.2348037293
  O         0.1714587756        0.4626392784       13.8146226501
  H         0.5120043379        1.4029974312       14.0153379902
  H         0.3456743513        0.1850282836       12.8564716551
  O         7.9671254205        0.0006170219       13.9956893499
  H         7.5531365821        0.8795947346       14.1056931538
  H         8.9431243718        0.2455126807       13.9321326916
  O         3.4699400010       10.5328747564        8.3545900596
  H         2.7320852024        9.9301806807        7.9223317774
  H         3.9967151889        0.7019173437        7.6139894217
  O         3.0965984655        2.7032098432       19.0630545121
  H         3.3458892745        1.8687333069       19.5067410398
  H         3.1815772035        2.5133633322       18.0781499439
  O        10.0426243092        6.8309637667        7.4756180831
  H         9.1400343035        6.6595536579        7.8244611439
  H        10.4900484010        6.2032102137        8.1203156795
  O         3.8152699963        5.8560805512        8.0909240542
  H         3.3424578035        6.4377962655        7.4897993720
  H         4.3334399052        6.5548239162        8.5411491943
  O         2.1175263744        1.5046700178       10.2754795618
  H         2.6631211438        1.0493812699        9.5369952793
  H         2.7758963018        1.5602074489       11.0224686720
  O         7.9253089625        4.4155405675       17.2688595299
  H         7.0588730259        4.4424522732       16.7373600040
  H         7.8477839993        5.1636416230       18.0030787466
  O         8.6497511214        3.9511101701       12.5094566151
  H         9.1050483292        3.6457400083       11.6421378664
  H         7.8397091876        3.4025235086       12.6099245759
  O         8.8155371968        0.6045588473       17.1065325640
  H         8.7129370376        0.6771028935       16.1159706996
  H         8.0878475791        1.1548401493       17.4447354108
  O         9.3817105478        6.6450968611       21.0085610920
  H         8.8196847940        6.6329336209       20.1154788362
  H         9.7521680384        7.5730522740       21.0379670296
  O         5.2807150325        3.6932618316        5.4102186061
  H         5.6050193242        3.2766663626        4.5953883943
  H         5.7089525931        4.5991643358        5.5288745186
  O         2.3379923621        6.5359035015       14.0390682446
  H         2.3975966749        6.8726892750       13.1184423756
  H         1.6321057269        5.8308851998       14.0234948246
  O         6.7529098497        2.3485576310        9.4586086322
  H         7.5624256749        2.7794131495        9.1093081196
  H         6.9165853512        1.6663415059       10.2078255227
  O         6.3600470999        5.8525523609        6.2149963215
  H         7.1931719734        6.0989526972        5.8503076504
  H         5.8443855678        6.6465073002        6.0325067568
  O         1.1916664500        6.9483640686       17.5203809347
  H         0.8963479667        7.6029176020       16.8453350786
  H         1.0806280151        7.5966047900       18.2861977798
  O         1.9771283078        2.6446537809       14.3944572316
  H         2.4971492447        2.8398774982       15.1683192876
  H         1.3793640709        3.4454704145       14.2169939276
  O         9.9064562180        0.7458989896        8.5187231989
  H         8.9443453388        0.5381901238        8.3218654607
  H         0.0783289437       -0.0853930251        8.2665421927
  O         4.9409964858        8.1484173987        5.4227853254
  H         5.3379810662        8.0148328940        4.5288210802
  H         4.0547540873        7.6798470050        5.2760010196
  O         6.2174091436        5.3318365449       20.4020179550
  H         6.4887395842        5.3875984388       21.3772981672
  H         5.2519013977        5.3864119505       20.4345548972
  O         7.9648936326        6.6071223011       11.5788340040
  H         8.1974639937        5.6527517610       11.9373389524
  H         7.1391744734        6.9062587538       12.0904636388
  K         1.2533467575        1.8615953225        6.0236601103
  O         4.9802722737        9.4711097442       12.7430475518
  H         5.1433261449        8.4920495405       12.6078586228
  H         5.7099257853        9.8088698967       12.2501083345
  O         1.3196819587        8.7330268494       15.3672408996
  H         0.8003530552        9.2605037899       14.7054571789
  H         1.6487664957        7.9745111621       14.8157256436
  O         2.0585590481        8.7519936195       19.9153163014
  H         1.2055254387        9.2313497763       20.1125077302
  H         2.2507655130        8.3315325517       20.8149803210
  O         7.4728254835        7.4633606064       14.5318394673
  H         7.4230882864        8.3764607085       14.1817507039
  H         6.5637378475        7.1009461074       14.6355980553
  O         5.5531383409        1.6620263203        7.1940589368
  H         5.9967156291        1.9207000883        8.0507093015
  H         5.2486023987        2.4375878848        6.6762552775
  O         4.9277074536        4.3193149346       10.6995315283
  H         4.4654673328        3.7305324371       11.3464831255
  H         5.5855023309        3.7734100576       10.2788058552
  O         0.6757098480        8.7396016641        4.9048887860
  H         9.9036132649        8.9068510404        5.0184089510
  H         0.9420640158        8.8432919852        3.9200524337
  O         2.3895986183        4.1374022599        5.0911187613
  H         3.3337071497        3.9761937784        5.1349023303
  H         2.2342744224        4.0120102106        4.1303534033
  O         3.9140995837        6.6390799845       17.4877731333
  H         4.3269429534        7.4245718222       17.9511513680
  H         2.9559054533        6.8924099019       17.3132815222
  K        -0.0553263459        2.7269893035       19.5228117190
  O         6.3628537997        1.4585378838       17.9194754476
  H         6.6974009827        1.7891351443       18.8315729546
  H         6.2300077893        0.4854432567       17.9639878322
     270
 i =     4000, time =     4000.000, E =     -4281.4170870488
 Cu         9.6706297934        0.1027798835       24.9710866293
 Cu         2.1430840401        2.7371962054       25.0927056979
 Cu         9.6407693938       -0.0470874562        2.1549899858
 Cu         2.2619757248        2.6981707159        2.2713318634
 Cu         2.1819580827        0.2040225104       25.0882432983
 Cu         9.8322053200        2.6885136519       24.9758474021
 Cu         2.0575820873        0.1285179859        2.2526495278
 Cu         9.7739045504        2.6283308676        2.2148510190
 Cu         3.2749486328        1.3419567659       23.2292287289
 Cu         0.8186696777        3.8480268708       22.8928646434
 Cu         3.4065999959        1.2489816876        0.5715190198
 Cu         0.8122369066        3.9074229957        0.4219505178
 Cu         0.8020554845        1.4177083212       23.2722148881
 Ag         3.6163546703        3.9939252441       23.1279891630
 Cu         0.7960838832        1.3836818087        0.5062658504
 Cu         3.5219455363        4.0653528922        0.4466099587
 Cu         4.7185861776        0.1260146478       24.9799153569
 Cu         7.1120952536        2.5833447441       25.1265710003
 Cu         4.7249994926        0.1546584821        2.4281128521
 Cu         7.2682808980        2.6904536765        2.2107207938
 Cu         7.2274316728        0.1238852610       25.0226244609
 Cu         4.5703042547        2.6360672436       25.1268024190
 Cu         7.1990884857        0.0196256766        2.2475472719
 Cu         4.6494022723        2.5918435274        2.2657041160
 Cu         8.3273442163        1.4190738439       23.2312107020
 Cu         6.1125672967        3.9897755054       23.2431166892
 Cu         8.5500752691        1.3468008410        0.4218166884
 Cu         5.9934542846        4.0066307040        0.4364765663
 Cu         5.8495141801        1.5837219698       23.1936144724
 Cu         8.5589434616        3.8633076090       23.2515164764
 Cu         5.9697247284        1.5116749393        0.5061750328
 Cu         8.4509953427        3.9501959358        0.3855588921
 Cu         9.8759409865        5.2986839539       25.0344838497
 Cu         2.2027702181        7.8578982312       25.0545687722
 Cu         9.7354970266        5.2689784144        2.0945252052
 Cu         2.4004427669        7.7961433146        2.2911757060
 Cu         2.1418843230        5.1661885351       24.9485954432
 Cu         9.8249009660        7.8142051661       25.0394111105
 Cu         2.2896209256        5.0741506170        2.2109387193
 Cu         9.9865711984        7.7884699591        2.1090385982
 Cu         3.3743305350        6.6225188432       23.1484273109
 Cu         0.8182633982        9.1308551054       23.3651746319
 Cu         3.5818248423        6.5199258176        0.4758789534
 Cu         0.8544695516        9.1171782523        0.4158610294
 Cu         0.7713456907        6.6292592148       23.2457170197
 Cu         3.3165902762        9.1001754221       23.2505347523
 Cu         1.0268609141        6.4356037720        0.4680705823
 Cu         3.4717067778        9.0300901141        0.3467865652
 Cu         4.7461645135        5.2855289688       25.1308172078
 Cu         7.1880130178        7.7597951005       25.0293999107
 Ag         4.8751528339        5.3635133138        2.6598695272
 Cu         7.4418174042        7.8701486567        2.3301775683
 Cu         7.2844636327        5.1313023602       25.0131663106
 Cu         4.7131089739        7.9107777844       24.9582796256
 Cu         7.4266572192        5.0964214701        2.2552122377
 Cu         4.8768255883        7.9364011989        2.1803550133
 Cu         8.4415477203        6.5164151483       23.3991562354
 Cu         5.8642189833        9.2419917056       23.1192820569
 Cu         8.4977636530        6.4963445118        0.4196786303
 Cu         5.9375444546        9.1063160123        0.3351183495
 Cu         5.9527018674        6.6464306264       23.2737112582
 Cu         8.5182138494        8.9760716807       23.1490646270
 Cu         6.0115663579        6.5881819195        0.4282244294
 Cu         8.4746810923        9.0055270037        0.3667590690
  O         8.3789293174        9.3853333990        5.2411682361
  H         7.9935973953       10.3222733891        5.0929874648
  H         8.2484636347        8.9310321856        4.3700949716
  O         9.4154293961        6.2180551535        5.1750201180
  H        10.2412252415        6.3712199555        5.6947302379
  H         9.5645165122        6.6777537458        4.2815817664
  O         4.4651701256        9.7817273912       15.7071006259
  H         3.6021185941        9.3031919584       15.8950817544
  H         4.5825922687        9.7554417497       14.7704364708
  O         7.0549173826        1.6840332402        5.1958208608
  H         6.3610087448        1.6488954320        5.9226578676
  H         6.4914424359        1.5049088447        4.3698765825
  O         3.0556462752        1.5613405665        5.2914106769
  H         3.3068107130        1.9730468679        4.4133214895
  H         3.6731010293       10.9869574309        5.3948860071
  O         7.1441862439        3.1508759563       12.9668762755
  H         6.4278292775        3.5932846132       12.5096167141
  H         6.9877766416        3.3715849684       13.8711902900
  O         5.2457057063        6.1592032112       15.6741825966
  H         4.3300417093        6.3654710309       15.2869378942
  H         5.0796089581        6.2739932951       16.6885036708
  O         7.6810625548        9.5715112211       20.4240146454
  H         6.9319643690        9.0556495942       20.0211100197
  H         7.3804805365       10.1758452790       21.1058895113
  O         0.3199329576        4.4447970906       17.4751048734
  H         0.5970607885        5.3639042831       17.7910272164
  H         9.6269473418        4.2908937964       17.7500182755
  O         5.0106948623        7.1601267381       10.7848203622
  H         5.6813463854        6.3906349148       10.9169936104
  H         5.2470649271        7.7279310576       10.0150452568
  O         0.9345786432        4.2191719974       14.8291397728
  H         0.2211020639        4.2336666604       14.1757885534
  H         0.5037761254        4.3484991869       15.7681417776
  O        -0.1401421866       10.1825296248       19.1371941406
  H        -0.3334469400       10.1616518010       18.1968090121
  H        -1.0388737664       10.0461259946       19.5943399051
  O         8.3985867562        6.8466836065       18.0655670059
  H         7.7378435993        7.5326617112       17.9699119752
  H         9.2239280853        7.1770888541       17.7305124368
  O         8.6397281430        3.7961371493        7.7735742170
  H         8.3721669390        4.7306903017        7.6531943449
  H         8.8300630705        3.4712872602        6.8722517351
  O         8.9333613052        8.7240179893       15.1993802837
  H         9.0866696561        9.5511464131       14.6776595777
  H         8.4706089166        8.1063379727       14.6014791872
  O        10.6288190939        2.6989074821       10.8862914849
  H        10.0653656418        2.0406480197       10.3286893062
  H         1.2566467117        2.1348396304       11.0476430666
  O         7.0757881905        8.9237809513       17.1096258962
  H         6.2349465098        9.1494003303       16.6264608329
  H         7.7662017993        9.1031746618       16.4573928864
  O         7.9248873538        6.4789800403        8.4536037268
  H         7.5509381206        6.3027669623        9.3393259426
  H         7.3673333818        6.7444026451        7.7361018212
  O         9.4422543724        3.3603904773        5.2186839567
  H         8.6310425675        2.8748813734        4.9342934804
  H         9.3970274537        4.3297078133        4.9593844500
  O         7.4293977264        0.5625255818       11.1569473537
  H         8.0006944345       10.0883103912       10.7618901852
  H         7.9678339118        0.8359344125       11.9918209566
  O         5.0039116651        9.1556656924        8.9559683143
  H         5.8207447738        9.6471770905        8.7160022784
  H         4.3443389319        9.8423401980        9.1840146607
  O         3.9477789946        0.2867883654       20.5677999248
  H         4.0173832139        0.4224566825       21.5864270818
  H         3.2137783289        9.8473662114       20.4694616362
  O         1.0840818054        4.6825296884       20.8947592092
  H         2.0117456784        4.9596130646       20.7310794790
  H         0.5615313788        5.5156565908       20.8628320676
  O         4.5037988161        1.8245303872       12.6797274553
  H         5.0313763065        1.0417487763       12.7661880347
  H         4.3833394426        2.3094954850       13.5071058880
  O         1.4238572487        5.0894128604       10.1788844408
  H         1.0271535147        4.1968658358       10.3343355514
  H         2.2796257390        4.9429732750        9.7004514282
  O         5.9130527590        3.4665060816       15.2937671802
  H         5.6566688740        4.4029705361       15.4828036269
  H         5.4183669433        2.8645664257       15.9046174601
  O         7.5642349937        2.5658672122       20.1816058643
  H         7.3975176670        2.4000383048       21.1079723306
  H         7.0946909598        3.4551937181       20.0489843135
  O         3.7037316754        4.8145523663       20.1784994431
  H         3.7331395325        5.3799325430       19.3310412311
  H         3.3819609094        3.8593729381       19.8746972581
  O         8.8563500896        8.6660403193       10.3214485315
  H         9.7836522342        8.7835690581       10.6078064520
  H         8.5096431557        7.9002592192       10.7913100920
  O         4.6377886795        1.8489957991       17.0620969300
  H         4.5528034367        0.9060977459       16.5303587998
  H         5.4726261635        1.6977065277       17.6313271551
  O         2.3528503304        7.6574543825        4.5299786935
  H         1.4451856813        8.1280393499        4.7312815485
  H         2.2719087130        6.6842159263        4.8836714965
  O         1.2851563107        9.0328418940       11.7708891950
  H         1.8469353855       -0.5400820607       11.2530245541
  H         1.7790086631        8.1773807840       11.7449403657
  O         1.3809121587        9.1420806082        7.9812974309
  H         1.2761443329        9.3704155247        6.9914044761
  H         0.9008380226        8.2477422643        8.0957175353
  O         2.6749402877        6.7212542518       11.9248065209
  H         3.5720505109        6.7254729895       11.5118481440
  H         2.1027743763        6.1436531370       11.3080342349
  O         7.6325411620        9.6077565208        8.2016172692
  H         7.5061933964        9.2366751516        7.2967135708
  H         8.1505028489        8.9494798058        8.7209793430
  O         3.6401820548        4.5467955413        8.7025537202
  H         4.2704214776        4.4644484356        9.5447632956
  H         3.6574519708        5.4820284030        8.3746048900
  O         5.3692296788        7.9311410948       20.0642452151
  H         4.9133002173        8.8403123488       20.1128681067
  H         5.3622071638        7.4935679768       20.8847997194
  O         1.2979500747        0.2699296440       14.0850307116
  H         1.9137855292        1.0107104055       14.1375138219
  H         1.4194836126       -0.1445822947       13.2210743034
  O         8.9917634479        0.7741130396       13.3351735997
  H         8.5058586480        1.3325841537       13.9538940455
  H         9.9712961878        0.7601767620       13.5676537402
  O         3.1309647813       11.0219891019        8.5950563495
  H         2.5911134717       10.1623103216        8.3405380001
  H         3.8204263123        0.9688513845        7.9152821135
  O         2.9607495167        2.3101474428       19.2539305312
  H         3.4926679088        1.7912989916       19.8882552219
  H         3.3565858473        2.1459017899       18.3579870983
  O        10.6241306175        6.7236463616        8.2115798407
  H         9.6802667678        6.5939854912        8.2869594005
  H        11.0461917527        6.2977057034        8.9838380944
  O         3.6565505764        6.8965266102        7.4417472945
  H         2.9727641208        7.5924570722        7.4280469097
  H         4.4324460573        7.4817419081        7.5908188205
  O         2.5761095478        1.2337966354       11.0438221205
  H         2.8827780889        1.4756624719       10.1048351240
  H         3.2662012847        1.4619593110       11.7304184050
  O         7.8864763277        4.1944190802       17.5729869460
  H         7.3433167890        3.8188956606       16.8688923219
  H         7.8440780619        5.1825161953       17.4760914958
  O         9.4141822682        4.3952965416       12.6036668091
  H         9.8292031772        3.8209267038       11.9273050641
  H         8.5244150075        3.8968028610       12.7430725043
  O         9.5099712920        1.5996370744       16.6876898200
  H         9.6779454938        2.5277857642       16.6329812832
  H         8.5554339537        1.6599288404       16.9994091405
  O         9.8104437999        6.8942969983       20.5161972294
  H         9.1165161811        6.7939724789       19.7970885623
  H         9.3784120125        7.2077656504       21.3667926369
  O         4.7403054633        4.6170567180        5.8838430758
  H         4.8686165579        4.0002439737        5.1276476344
  H         5.5550654041        5.2332778493        5.8356864876
  O         2.7104223740        6.4651055866       14.6123111676
  H         2.8096277201        6.3734281460       13.6182015416
  H         2.2719404225        5.6120499383       14.8722873097
  O         7.1259773536        2.4440515669        9.2278453675
  H         7.8767342410        2.8060132441        8.7258862939
  H         7.3294191329        1.7283434669        9.9098393088
  O         6.5547281339        7.0485003981        6.2105103744
  H         7.3821666638        6.9696261454        5.6897600696
  H         5.8723276864        7.5812778441        5.7223431346
  O         1.2170661739        7.1417325121       18.0350847814
  H         1.2942586848        7.8864919732       17.3368320023
  H         0.9219465411        7.4884076029       18.9233989252
  O         2.7873202596        2.3487146285       14.7106575707
  H         3.1116648757        2.2714202560       15.6479926622
  H         2.0564998589        3.0107210981       14.7283598726
  O         9.7644704755        1.0729170680        8.9140502171
  H         8.8417216082        0.7638352607        8.5398486506
  H         0.1523033584        0.3128518611        8.8714182985
  O         4.7202503291        8.9455449800        5.2748898045
  H         5.2105969288        9.1500892313        4.4336893802
  H         3.9241831938        8.3995210601        5.0608489919
  O         6.3691449523        4.9235446339       20.3691665293
  H         6.6697934459        5.2524284293       21.2827815502
  H         5.3822903478        4.8127554453       20.3873111937
  O         7.9290116760        6.3365456897       11.3238679986
  H         8.5810467432        5.5885121381       11.5336493144
  H         7.5130508960        6.4154446551       12.2129210177
  K         1.3943822588        3.1447632795        7.4777689545
  O         5.6591750300        9.4494472298       12.5943172999
  H         5.1461845589        8.8325610377       11.9667935036
  H         6.3042626286        9.9794139347       12.0176868035
  O         2.0975321150        8.6687004382       16.0400670620
  H         1.7653544429        9.2841948836       15.3704862962
  H         2.1868012056        7.8296795013       15.4966876203
  O         1.9094323426        8.7412404155       20.2826602068
  H         1.0035828615        9.1192474054       20.0342061929
  H         1.6998471129        8.3207809833       21.1975967625
  O         7.0597012230        7.0818803975       13.8093722573
  H         6.6417445493        7.8651224201       13.3292466896
  H         6.4545022052        6.8160538529       14.5214823580
  O         5.2704201464        1.8494317676        7.3929757000
  H         6.0035997012        2.0264427461        8.1472946760
  H         5.0258757102        2.7731826581        7.1792975489
  O         5.5298408176        3.9697381826       10.7064950878
  H         5.0136570631        3.1684666477       11.1009071456
  H         6.1973503946        3.5533732336       10.0976438654
  O         0.8668346505        9.6728017625        5.3550718466
  H        10.0863194756        9.6028629259        5.3130466895
  H         1.0049600394       10.5997924764        5.0626575817
  O         2.0530884895        5.1807924814        5.3085102095
  H         3.0125075787        4.9889899593        5.4894866730
  H         1.8782500929        4.7558545913        4.4904545969
  O         4.1028547373        6.5103151954       18.1701850013
  H         4.6805309404        7.1553916736       18.7066939801
  H         3.2163398888        6.9859198024       18.0878518792
  K         0.2964660139        2.4992130345       19.7363268169
  O         7.0054506464        1.2635420855       17.9188898136
  H         7.1114341856        1.5675103316       18.8804525519
  H         7.2417435368        0.3071632744       17.9462519249
     270
 i =     4500, time =     4500.000, E =     -4281.3656286078
 Cu         9.6918217884        0.1461381538       24.8875035273
 Cu         2.1247677995        2.7412724974       25.1566254542
 Cu         9.7306978552        0.0202167068        2.2524381462
 Cu         2.2631642205        2.7742284742        2.2084074532
 Cu         2.0162158990        0.1838074193       25.0909725201
 Cu         9.7956255137        2.6918972632       25.1707673185
 Cu         2.2729669411        0.2299228587        2.2939985012
 Cu         9.9235865893        2.7640619952        2.3115961528
 Cu         3.4010646768        1.4618107164       23.3393144535
 Cu         0.8467856212        3.9803523938       23.2835274836
 Cu         3.4703991981        1.4414843544        0.4952529548
 Cu         0.9449125278        3.9100189220        0.5055327684
 Cu         0.8303939596        1.5410506311       23.4654108027
 Ag         3.4549820797        4.0731215403       22.8196917693
 Cu         0.7481397640        1.3550447278        0.5235480810
 Cu         3.4961725229        3.8703942020        0.5968020337
 Cu         4.5968883214        0.1549515133       25.0207557382
 Cu         7.1425147958        2.7812469497       25.1035867868
 Cu         4.7050851982        0.0994733585        2.4097715038
 Cu         7.2882018481        2.8207702320        2.3384861394
 Cu         7.1597879378        0.0579168345       25.1232914331
 Cu         4.6454815550        2.6817305568       24.9907832781
 Cu         7.1630602655        0.1874517775        2.1232006069
 Cu         4.6991626565        2.4827903237        2.2819247039
 Cu         8.4089109401        1.5623169907       23.2583747422
 Cu         6.0137894528        3.9168277054       23.3654562413
 Cu         8.5338840190        1.4906340831        0.5230465323
 Cu         6.1791000806        4.0792791787        0.4817741212
 Cu         5.9239520778        1.3809415177       23.3787373415
 Cu         8.4467497629        4.0204104313       23.4267203291
 Cu         6.0652316222        1.4693032885        0.5618954915
 Cu         8.5851380465        3.9185849786        0.3994175166
 Cu         9.8497285686        5.2762158373       25.0383907174
 Cu         2.0646452894        7.7888787316       25.1323727847
 Cu         9.9016394221        5.2464962465        2.1870677634
 Cu         2.3859968477        7.8868594410        2.3301549987
 Cu         2.2710105604        5.2928660032       24.9967905117
 Cu         9.7384886707        7.9465523123       24.9980533838
 Cu         2.0949199430        5.2231318939        2.2414259427
 Cu         9.9842167283        7.8198901192        2.1824019100
 Cu         3.3758995158        6.6765031771       23.2779004199
 Cu         0.7862354059        9.0905139585       23.1931206420
 Cu         3.5292262218        6.4669860146        0.6857131812
 Cu         0.9012169439        9.1413312754        0.3124227516
 Cu         0.8994341882        6.5965158776       23.4389113922
 Cu         3.3879404696        9.0972098664       23.1512939984
 Cu         0.9665631405        6.5305789466        0.4722920211
 Cu         3.3948713423        9.0926907739        0.4547828629
 Cu         4.7524653253        5.3432383925       25.1981144810
 Cu         7.2335266133        7.7287346877       25.1469127805
 Ag         4.7691812298        5.1647171292        2.6407305251
 Cu         7.3511852525        7.8759811766        2.2158654231
 Cu         7.2679071179        5.2714956946       25.0734608188
 Cu         4.5562430635        7.8219531848       25.0421925886
 Cu         7.2830043296        5.3263381550        2.3708520198
 Cu         4.9709442713        7.9219108608        2.2324717319
 Cu         8.4129486469        6.6429201349       23.2048745661
 Cu         5.9543398349        8.9405316615       23.1732742607
 Cu         8.5847954402        6.5312391498        0.4973441211
 Cu         5.9979030316        9.1578058775        0.3624803962
 Cu         5.8418019788        6.4312555021       23.2146609050
 Cu         8.3054571257        9.2103898014       23.0773017075
 Cu         6.0279807916        6.5740270213        0.5413723945
 Cu         8.5534441564        9.1708168291        0.3954467800
  O         8.9755403128        9.6085875640        5.1663042344
  H         8.3255319613       10.3551440746        5.0285703071
  H         8.7690878758        9.0005597061        4.4406121636
  O         9.1371682141        5.9864386438        4.9419025515
  H         9.5948062315        6.4336902503        5.7439274677
  H         9.6517333502        6.4355240244        4.2185996025
  O         3.9658364765       10.0247659501       15.1980314276
  H         3.1881026035        9.4616509229       15.3629682202
  H         4.3481254764        9.6776292237       14.3453264909
  O         7.0503632113        1.9496936553        5.2668064314
  H         6.3818969813        1.9508212600        5.9806483240
  H         6.5165860144        1.7750058172        4.4676678363
  O         4.0459993708        1.1747290940        5.3266042017
  H         3.9653529795        1.0764186691        4.3502811350
  H         4.5009612857       10.5554162204        5.5916653239
  O         7.4873645780        3.0292458851       13.6931082002
  H         6.8194973602        2.6594372645       13.0928574909
  H         7.0620747125        3.5323448492       14.5094349384
  O         5.0856125226        6.3454374702       15.4627295134
  H         4.3398357013        6.4754196872       14.9232560718
  H         4.7560477670        6.2699810771       16.4085507984
  O         7.4636250870        9.3631285748       19.9517633266
  H         6.8773385167        8.6243142853       19.7205509654
  H         7.4909663107        9.3989329207       20.9487750993
  O         0.4084324291        4.3295473393       16.6723176813
  H         0.8512499804        5.1083438633       17.0447432726
  H         9.7558941609        4.1841941284       17.0225599057
  O         5.1912095210        7.4552792576       10.7735449912
  H         5.9715105838        6.8621690356       11.0127015989
  H         5.4497020201        7.7989243495        9.8498661448
  O         1.0336764559        4.5090273057       14.1724026400
  H         0.4341294520        4.6873282011       13.3981977210
  H         0.5471570031        4.5082953550       15.0814324893
  O        -0.1490389246        9.2835669298       19.5858601651
  H        -0.0484714992        9.1567750010       18.6068759113
  H        -1.2193757853        9.2738386470       19.6945279810
  O         7.9392674231        6.6534921191       18.1926479729
  H         6.9964322559        6.8860912129       18.2948588611
  H         8.2316142141        7.3111490379       17.5058796237
  O         8.6034251203        3.6544814388        8.3920128625
  H         8.1738143566        4.5711235309        8.3441567404
  H         9.0188197173        3.7324117765        7.4793929428
  O         8.8889093589        8.3109406408       16.2743132829
  H         8.9968214003        9.3260940732       16.3766446826
  H         8.4225562547        8.3914082367       15.3474563436
  O        10.7475081802        3.1189608423       10.5284607328
  H        10.0969017494        2.5918243594        9.9655530384
  H         1.2345812339        2.3454796066       10.7047052049
  O         5.8149638280        9.0673389975       16.8771132704
  H         5.0526180302        9.3994172464       16.3191123370
  H         6.5770314399        8.7025482472       16.4027859075
  O         7.8135410606        6.3667670070        8.3436687323
  H         7.4465901087        6.5579157446        9.1930599958
  H         7.1951844612        6.7263203477        7.6733433862
  O         9.3872963555        3.3214432498        5.6831312953
  H         8.5202586398        2.8760705840        5.3547387660
  H         9.2851249478        4.2452069665        5.3220900989
  O         7.5518580471        0.1535108606       11.6433201917
  H         8.2770072892        9.8623500329       11.2362064470
  H         7.9697529545        0.3369062936       12.6110547546
  O         5.7944825187        8.8864124511        8.4523441383
  H         6.7162587431        9.0788300015        8.1140751933
  H         5.4496849515        9.7078547039        8.7699186063
  O         3.8845572011       -0.4737161661       20.0112844775
  H         4.2735112194       -0.2258096657       20.8602539500
  H         3.2774085791        9.0330413351       20.2547991123
  O         0.6928427432        4.5248202439       21.0506905872
  H         1.6326937215        4.8328856553       20.8897035014
  H         0.1746634068        5.3805502337       20.9007803261
  O         4.3138815455        2.0951122190       12.8813582614
  H         4.8402344983        1.2627170743       12.8721463418
  H         3.6401269859        1.9267568848       13.5701569625
  O         1.3577366563        5.2691866681        9.2342246972
  H         0.9436396157        4.4303590321        9.6946008982
  H         2.1711191620        4.8550394742        8.8681848036
  O         6.2084451606        3.9570120334       15.7035903905
  H         5.8653375098        4.8851297772       15.7107150790
  H         5.3107630795        3.5252607539       15.8095798123
  O         6.7083730021        2.1432721317       20.1992904221
  H         6.3075667520        1.7942282410       21.0810353531
  H         6.5117514259        3.1349109175       20.2255042010
  O         3.3017824916        4.3512617698       20.3342170441
  H         3.7663560669        4.8076292282       19.5755231631
  H         3.2333084828        3.3552514927       20.1143508580
  O         9.1193726425        8.4035856567       10.0045120531
  H        10.0275563489        8.4589220591       10.3858224471
  H         8.6652008965        7.7592014943       10.6205182979
  O         4.0710792492        2.1039913782       16.9514114541
  H         4.0536973012        1.4067782125       16.2955358361
  H         5.1087147842        1.9468979738       17.2357649077
  O         2.6274311447        7.7948880974        4.6173302351
  H         1.9761287375        8.4852116123        4.8547068360
  H         2.2047502195        6.9047551956        4.9002814419
  O         1.1606769209        9.1591369458       11.6604029101
  H         1.5478662724       -0.1275750880       11.4438854464
  H         1.7379713617        8.4322619049       11.3003301443
  O         1.6997024914        9.2751745089        7.7069947773
  H         1.6104164391        9.6615968975        6.7263579647
  H         1.0059388647        8.5813595901        7.7103468951
  O         2.6787257099        6.8087133977       11.2503737390
  H         3.6340459452        6.9727663826       10.9418236083
  H         2.3279591311        6.1461819040       10.6009679886
  O         8.2354393445        9.5826706596        7.8619454755
  H         8.6433740249        9.4326946625        6.9718061512
  H         8.7683784745        8.9253975361        8.4470966020
  O         3.8665038855        4.4093885106        8.3865484446
  H         4.3064739297        4.3469357284        9.3275504898
  H         3.9351339123        5.4026535856        8.1379619028
  O         5.3567624410        7.3928465048       19.6722727523
  H         4.9644038307        8.3031476307       19.7282592407
  H         5.3638790785        7.1216362308       20.6579269604
  O         0.6713742679       -0.2040935140       14.1595042752
  H         1.1297545889        0.7063498606       14.2832042737
  H         0.8427963569       -0.4590612887       13.1784319306
  O         8.1825450363        0.4074036360       14.1205685391
  H         7.9728923265        1.4157153126       14.2152013958
  H         9.2004159348        0.3108509238       14.2038516242
  O         3.9501650261       10.6805297091        9.0154698861
  H         3.3202498964       10.2257887190        8.4061562787
  H         4.4023447314        1.2098644830        8.5500556539
  O         2.6379748460        1.8456916890       19.3852889462
  H         2.9905651581        0.9808423896       19.6609464245
  H         3.0436112681        1.7892143843       18.4316149785
  O        10.4777557226        7.0964471542        7.5683445761
  H         9.5343416792        6.8552439998        7.9483194594
  H        11.0263683693        6.4100491791        8.1000111648
  O         3.9158526140        7.1219161852        7.5938573156
  H         3.1663126182        7.7499237502        7.7761807431
  H         4.7498522856        7.6084932250        7.7671382799
  O         2.4349844712        1.3220336002       11.0169340953
  H         3.0057138403        1.0726128206       10.2259072556
  H         3.0755450995        1.6945237829       11.6800023312
  O         8.2129350345        3.7978717001       17.8893467278
  H         7.4168986182        3.5833153847       17.3291057347
  H         8.0809388354        4.8084095591       17.9196152773
  O         9.2772365994        4.4923534207       12.2080293466
  H         9.8566706834        3.8488086276       11.5940860000
  H         8.6991991703        4.0101113339       12.8110804932
  O         9.6425845711        0.8314936162       16.8843318851
  H         9.6604245623        1.4823679366       16.1593962864
  H         8.7093496545        0.9154008369       17.2709183489
  O         9.0472502601        6.5025062145       20.7910970344
  H         8.8128274266        6.5102376482       19.8251784511
  H         9.3229535593        7.4310621150       20.9924554220
  O         4.9753505008        4.5420484399        5.1903682700
  H         5.4264089190        3.7505451592        4.8491581752
  H         5.6397677585        5.1269950704        5.6090776357
  O         2.7343504195        6.4494497674       14.0606949702
  H         2.5743935359        6.7792999988       13.1080928698
  H         2.3513040149        5.5054286011       14.0540843911
  O         6.8414990442        2.4668125989        9.9022832706
  H         7.6191790349        2.7610336544        9.3642027334
  H         7.2133491832        1.6772431949       10.4287141831
  O         6.5783029058        6.4184221828        6.1544232204
  H         7.3146219275        6.4634002379        5.5014683087
  H         5.9604834455        7.1707949465        5.8569435806
  O         1.4053543997        6.7860342107       17.7850883969
  H         1.7633997944        7.4619295755       17.2022623931
  H         1.6333310400        7.1043000463       18.7154252758
  O         1.8663715921        2.0254629474       14.4168716213
  H         2.1619096469        2.2281014694       15.3530549503
  H         1.4804584604        2.9628831993       14.1927846746
  O        10.1460944899        0.8291112829        9.2253609911
  H         9.3248575673        0.5226728802        8.7201480307
  H         0.5377817466        0.3438114037        8.6394317497
  O         5.1911065556        8.6306846353        5.2104804340
  H         5.4740020603        8.6963167171        4.2537460606
  H         4.2479982395        8.2632550056        5.0781571956
  O         6.0467278860        4.7699238806       20.4750819652
  H         6.6682131985        5.3395937016       21.0557528477
  H         5.1916268655        4.8126919798       20.9355959084
  O         7.7812942585        6.6249275078       11.5096540435
  H         8.4642003972        5.8718340195       11.6032896875
  H         7.5102179116        6.8598269357       12.4757916357
  K         1.8418352507        2.6541552416        6.4033816519
  O         5.3327517511        9.6372559320       12.7602201667
  H         5.0692906915        8.8015709835       12.3558664820
  H         6.1918578854        9.7771475253       12.2558248256
  O         2.1419679547        8.4099827938       15.6533322029
  H         1.3126613284        8.7608855512       15.2270497731
  H         2.2753510571        7.5690913732       15.0782802038
  O         1.9109839115        7.8352227730       20.2709624031
  H         1.0668106284        8.2801719802       20.3423812888
  H         1.9816580216        7.4137238027       21.1950756007
  O         6.9811619816        7.6521576607       13.9008331487
  H         6.4869394988        8.4637934637       13.7052675760
  H         6.4246775808        7.1177839157       14.4561658815
  O         5.4016048787        2.2280368290        7.5934648246
  H         6.0956528045        2.2583870157        8.3063551183
  H         5.0515928084        3.1641817458        7.5219470373
  O         5.2745555116        4.3612187967       10.9367109455
  H         5.0981645149        4.4937662152       11.9096847022
  H         5.7646438488        3.5406898597       10.8851620291
  O         1.2592287245       10.1584870402        5.2944677577
  H        10.4719737217       10.1419099606        5.0693215979
  H         1.7360525856       10.2488924584        4.4221944456
  O         2.2226692258        5.1746865846        5.2173546419
  H         3.1717607742        5.0282591772        4.9308839266
  H         1.8247968519        4.8163034262        4.3329473222
  O         3.9450575762        5.8446531818       17.8181492154
  H         4.4434900401        6.4930670207       18.4328542361
  H         3.0729123300        6.2039371438       17.8613458252
  K        -0.3313457604        2.2962135250       19.8277174653
  O         6.7238148993        1.3613132573       17.6247904456
  H         6.6796465738        1.6449295901       18.5534361627
  H         6.4939438405        0.4295557007       17.5949734704
     270
 i =     5000, time =     5000.000, E =     -4281.3564004065
 Cu         9.8699969008        0.3277820720       24.9437988707
 Cu         2.3043455078        2.7237595870       25.0651686438
 Cu         9.9712960059        0.1102384562        2.1516360710
 Cu         2.2181253801        2.8376323170        2.3858313552
 Cu         2.2637475921        0.1513646588       25.0506481730
 Cu         9.9570582643        2.7447173331       24.9967733301
 Cu         2.3332103660        0.1241868215        2.3165361888
 Cu         9.8519985326        2.6617839696        2.3415308086
 Cu         3.6012042101        1.6073603726       23.2891032483
 Cu         0.8491127134        4.0280100622       23.1171386978
 Cu         3.5505426967        1.4531498626        0.4200470275
 Cu         0.9928309583        4.0637174312        0.4580670954
 Cu         1.0166294312        1.6014183950       23.2088974911
 Ag         3.5697761563        4.0603711998       22.9908472500
 Cu         0.9678534776        1.4638312874        0.5325102505
 Cu         3.4421160529        3.9180946042        0.3917559440
 Cu         4.7503014055        0.1306597605       25.0104368035
 Cu         7.3447010877        2.5725759424       25.0231178852
 Cu         4.7767551829        0.0966529176        2.2461530717
 Cu         7.3304689763        2.8713167952        2.1985591181
 Cu         7.3066842821        0.1026961438       25.0665970756
 Cu         4.9427617750        2.7043248865       25.0403104279
 Cu         7.4978616006        0.2013939650        2.1935371134
 Cu         4.8480440879        2.6346397833        2.3599958472
 Cu         8.6094621600        1.3893124749       23.3458302665
 Cu         6.1157563223        4.0086307679       23.2872465992
 Cu         8.6691349886        1.5162318245        0.4866204251
 Cu         6.0360808770        3.9765920286        0.4770051327
 Cu         6.0973291540        1.3053714235       23.0981957086
 Cu         8.5328109430        4.0036691353       23.3879769410
 Cu         6.0523611211        1.4423133775        0.4390988178
 Cu         8.6887750019        4.0638056382        0.4587899959
 Cu         9.8346984466        5.4046504179       25.0335851509
 Cu         2.2770087413        7.8298256827       25.2629664416
 Cu        10.0269470063        5.2471011823        2.3360312831
 Cu         2.4061450600        7.8483262375        2.3661779203
 Cu         2.1806642420        5.1753596180       24.9163582062
 Cu         9.8515956101        7.7744571151       25.0748013680
 Cu         2.2553739390        5.3303883886        2.3046713198
 Cu         9.9847652243        7.8559922890        2.2885240524
 Cu         3.4877115793        6.5291546629       23.2565553939
 Cu         0.8144154431        9.0986402007       23.3906571763
 Cu         3.5088072150        6.4517190128        0.5197490135
 Cu         0.9780970423        9.1851359992        0.4439439128
 Cu         0.8843970706        6.6863213049       23.3425452450
 Cu         3.4288539113        9.0686578317       23.3623278928
 Cu         0.9245802215        6.6387421689        0.6219427352
 Cu         3.6147677974        9.1137664042        0.3953749548
 Cu         4.7640518169        5.1826964287       25.0073534933
 Cu         7.3602241833        7.7485818825       24.9152353632
 Ag         4.8006537071        5.1557196278        2.7871490526
 Cu         7.5584761500        7.8279440031        2.2472743729
 Cu         7.1930609534        5.3258281099       25.2000578819
 Cu         4.8447092594        7.7474686822       25.1918594289
 Cu         7.3031724004        5.2778764109        2.1592625360
 Cu         4.9877492033        7.9012614106        2.3780405436
 Cu         8.5152362109        6.4731567943       23.1792950031
 Cu         5.9551859106        9.0592336017       23.3132942189
 Cu         8.6509611919        6.6258498609        0.5000513415
 Cu         6.0926501762        9.1146726408        0.5577394866
 Cu         6.0246655619        6.5697889153       23.2579703737
 Cu         8.5106443344        9.0758241474       23.3002747208
 Cu         6.0696204452        6.5476010352        0.4770875591
 Cu         8.6372985460        9.1122806029        0.3416441106
  O         8.3068060420        9.2530541539        5.1591389080
  H         7.6280448378        9.9800361174        5.0718366228
  H         8.2861757114        9.0505896451        4.2213707861
  O         8.2716336628        6.0354484746        5.0692131585
  H         9.0971453077        6.2351331206        5.6036411088
  H         8.5597737947        6.4995728306        4.2339896025
  O         3.8413975198        9.9362959805       15.2049478458
  H         3.0816815356        9.3011661013       15.4284625815
  H         4.3352790649        9.4540565332       14.5222232342
  O         6.5025042934        1.1271878503        5.1254954334
  H         6.1164221076        1.5473531948        5.9128149099
  H         5.9860720355        1.2619936628        4.3316832149
  O         2.8498645061        1.4547791043        5.2139474659
  H         3.1581644424        1.5890491675        4.2544568272
  H         3.2299545114       10.7692327530        5.4167706458
  O         7.0391655223        2.6436194505       13.5527476256
  H         6.3522131636        2.4913915548       12.8493456699
  H         6.5239220110        3.3079698397       14.1060537822
  O         4.9613546935        6.3873286486       14.8930677347
  H         4.0607327027        6.3781495121       14.4037440585
  H         4.7119633229        6.5236620071       15.9094898919
  O         8.0382332657        9.7892057105       20.5730047325
  H         7.2441139972        9.2578278121       20.4329334501
  H         7.9667027122       10.1097707806       21.5393410142
  O         0.0464728781        4.7204212798       16.9074689221
  H         0.2865917431        5.6637865324       17.0806562319
  H         9.2789416270        4.6946307134       16.9191048350
  O         4.7303857823        7.2546887076       11.3028888803
  H         5.4452270804        6.7011821399       11.6622256910
  H         5.1045625835        7.6847066699       10.4645121695
  O         1.0178465409        4.0911699357       14.3606338182
  H         0.1254610691        4.0540328255       13.8887831458
  H         0.7817055908        4.3384067465       15.3097032883
  O         0.3259348769       10.2825111692       19.6531182286
  H         0.4935713063       10.3878324569       18.6917101503
  H        -0.6338526186        9.9492103982       19.7800645975
  O         7.6607870984        6.8948072552       18.6618837513
  H         6.7753564279        7.2869121604       18.9742549432
  H         8.0667833841        7.5503582926       18.1266280978
  O         8.3495860053        3.4297576542        8.0054902795
  H         7.8704137808        4.3025667788        8.1275094547
  H         8.3435576398        3.3069441519        7.0190365586
  O         8.2272320113        8.7480387878       16.9414104171
  H         8.6117133626        9.6722292608       16.9962063720
  H         8.4823508321        8.2163321786       16.1694034157
  O        10.2925280207        2.5592556792       10.4395016162
  H         9.7437784021        2.0923905276        9.7435543916
  H         0.8400598164        1.9545395738       10.6988158197
  O         5.4711359664        9.0722259900       17.3165598573
  H         4.8599100227        9.2099071579       16.5599385827
  H         6.3021123409        8.6979747982       16.9358576081
  O         7.0202312394        5.6443488776        8.7137860159
  H         7.4653799542        6.2191666157        9.3032933729
  H         6.4752217470        6.2088535572        8.0187829233
  O         8.7364153753        3.2726374705        5.1222684036
  H         8.0094653859        2.7397396316        4.7279739998
  H         8.5326884100        4.2832681878        4.9806598900
  O         7.3164399437        0.2074844293       11.2894063261
  H         7.9922451372        9.8007937369       10.8027368929
  H         7.9358911428        0.8778548886       11.5900993232
  O         5.3582025494        8.4860272222        9.1290009650
  H         6.1604754009        8.8040218588        8.6567396585
  H         4.5947082922        9.0492922644        8.8908391098
  O         3.9641790196       -0.0189817617       20.4190218398
  H         4.3729496220        0.1722297082       21.2860597361
  H         3.3444456911        9.4597116704       20.6921205691
  O         0.6534474461        4.8119712925       21.0959334109
  H         1.6138269028        5.0354302490       20.8370053952
  H         0.0370843656        5.6124208998       20.9573213153
  O         4.2267099926        1.9896084984       12.4611885957
  H         4.6034241987        1.1044973428       12.5187871673
  H         3.5854096373        2.1281010195       13.1819933125
  O         0.7849491645        5.1206627638        9.6069678306
  H         0.3702863616        4.2556138169        9.8589715705
  H         1.5994963199        4.7279323596        8.9965347151
  O         5.9490629716        4.1042479262       15.2595077436
  H         5.4593837925        4.9160529827       15.1235062108
  H         5.3230240853        3.5303708897       15.7971022350
  O         7.4970535054        2.4734938711       20.1710902719
  H         7.3537800148        2.1534078559       21.0794509148
  H         7.0942207222        3.4245775041       20.3748034592
  O         3.5743823905        4.8243944458       19.9262734380
  H         3.8093914320        5.5039354981       19.2560723730
  H         3.4414215095        3.9373671563       19.5286290246
  O         8.7350880746        8.4872997397       10.1724736443
  H         9.6627618440        8.5743365581       10.5959457249
  H         8.2541177276        7.8592785827       10.7716397866
  O         4.8120029001        2.1894708890       16.4750669193
  H         4.6788061741        1.3336162111       15.9670843480
  H         5.6955349457        1.9581327428       16.8992506637
  O         2.2636678842        7.4674175397        5.2042838740
  H         1.6211888858        8.1626102895        5.0199740833
  H         1.8894067411        6.5774191212        5.3846716849
  O         0.7535439745        9.1109496606       11.5627246452
  H         1.1693247877       -0.2827677876       11.1784003201
  H         1.4682101743        8.4150888878       11.5727693922
  O         1.0012825782        8.7689949280        7.6777471941
  H         0.8961051043        9.0374135685        6.7218269697
  H         0.5506542433        7.8943663985        7.7112465792
  O         1.9574828666        6.7998503594       11.4490213030
  H         2.8899111069        6.6165088355       11.1336947978
  H         1.3890483642        6.2463857646       10.8671220371
  O         7.6538140620        8.6884339806        7.7435676305
  H         7.9855862728        8.6644350255        6.8365229291
  H         8.4155388986        8.6292140612        8.2773631245
  O         2.7538351064        4.1428738042        8.2651583288
  H         3.5070192197        3.8993050626        8.8579937632
  H         2.9577956711        5.1113619214        7.9914834592
  O         5.8001244765        8.2081801067       20.2169536655
  H         5.1324391583        8.8960485505       20.1284453891
  H         5.8115340941        7.9749579105       21.2022777077
  O         0.2549540061        0.1155549342       13.9615776389
  H         1.0128784321        0.7749179178       13.7670925537
  H         0.2162766713       -0.3999793933       13.1486229050
  O         7.9288971796        0.1107014734       14.5078950563
  H         7.4446188480        0.9674868089       14.4010920732
  H         8.8698871049        0.4029034308       14.3185332935
  O         2.9920252945       10.4265313829        8.5656367030
  H         2.3353832697        9.7358529640        8.2160391434
  H         3.2871852774        0.8692871084        7.8125978599
  O         3.0876392434        2.3709454071       18.5396583306
  H         3.3933871885        1.6463504909       19.2030211185
  H         3.8003512294        2.3922539970       17.8254628678
  O         9.8865063830        6.3998739714        7.4987797940
  H         9.0061821552        6.3732637879        7.8637806567
  H        10.4004332543        5.8235826784        8.2031969856
  O         3.1511744732        6.8424981090        7.8583414999
  H         2.6103433868        7.4944434119        7.3759915367
  H         3.8393238507        7.3285825608        8.4270294440
  O         2.1532106708        1.1602666118       10.8985696510
  H         2.5423039479        1.0062521973       10.0018768759
  H         2.9332067764        1.3031407524       11.4914825413
  O         7.7208328549        4.2770518431       17.3324689806
  H         7.1451380914        4.4891636878       16.5798382666
  H         7.3954341106        4.9318814205       17.9718687652
  O         9.3022395984        4.0799136389       12.5335558888
  H         9.5865839155        3.4946131579       11.8043644085
  H         8.4791752830        3.5769635664       12.8384076839
  O         9.3635015943        0.9205727114       17.2044699978
  H         9.4450672503        1.1468026592       16.2724471311
  H         8.4146375747        1.1955879191       17.5026731652
  O         8.9408379831        6.7344445905       20.8080720634
  H         8.4685544933        6.6429383145       19.8158578546
  H         9.2643491690        7.6428366420       20.7889522687
  O         4.3693780288        4.4903969331        5.6076793451
  H         4.7355146839        4.1255488757        4.7501424449
  H         4.9447996016        5.2491567460        5.9266143869
  O         2.4985242873        6.3923635948       14.0707071850
  H         2.3149977134        6.6436112306       13.1079925541
  H         2.1713888045        5.4381353851       13.9995919042
  O         6.4387640315        2.3392381463        9.4966727385
  H         7.2165609291        2.7263479746        8.9287897832
  H         6.6435704181        1.5123259016        9.9798455444
  O         5.9099472922        6.3723792839        6.5820752286
  H         6.7417163907        6.4861319277        6.0596078026
  H         5.3824544197        7.2159013478        6.4335962209
  O         1.3324192603        7.1652045294       18.0333272658
  H         1.2983430727        7.8189949107       17.3042056344
  H         1.1656533369        7.5835892287       18.8727421293
  O         2.3101355464        1.8974047008       14.0609635626
  H         2.6064719301        1.2569037575       14.7397948312
  H         1.6607743299        2.6069059023       14.3245316868
  O         9.3094314522        0.6890253541        8.6167308526
  H         8.4961823963        0.3753320392        8.1574904273
  H        -0.3145154589       -0.0863423835        8.5611685726
  O         4.5240710417        8.6954165426        6.1215206648
  H         4.9578522333        8.5813131692        5.2262224871
  H         3.6144879014        8.3094155038        5.9915519352
  O         6.3456496749        4.6848462674       20.6698058731
  H         6.3559217423        5.4456278781       21.3118687509
  H         5.3484967269        4.6086762755       20.4272580680
  O         7.9675640656        6.4578015922       11.9447935421
  H         8.4066094683        5.5733944608       12.0357596986
  H         7.9622651797        6.8478129570       12.8257246455
  K         1.0352127607        2.5301242113        6.6521848352
  O         5.2021298480        9.5931692463       12.9029226370
  H         5.1526527219        8.7171899098       12.4434450679
  H         6.0923808644        9.9425326040       12.6773103601
  O         1.5474113620        8.4116697905       15.6732865102
  H         0.9429398769        9.0593706659       15.1788649128
  H         1.6104457324        7.5607782451       15.1395139079
  O         1.9425792887        8.2315624511       20.5144318310
  H         1.4166352648        9.0504099706       20.3002396537
  H         1.9314061847        8.1132085922       21.4743319646
  O         7.3824327714        7.7069947555       14.3099821537
  H         7.3893836873        8.6472595130       14.3661714262
  H         6.5631342311        7.4410008771       14.7611466198
  O         4.7168050719        1.9038559604        7.0044777925
  H         5.3069388724        2.0576666752        7.8551939155
  H         4.4319002567        2.8500039970        6.7538357431
  O         4.3832854090        4.0233130741       10.1527595679
  H         4.0937724771        3.6775665559       10.9879166487
  H         5.2431377804        3.6047977556        9.9564416777
  O         0.5327354033       10.0810399372        5.3941277918
  H         9.9005295451        9.8819355774        4.9597664096
  H         1.1163737647       10.7129551733        4.8897477178
  O         1.8677186943        4.9773824367        5.2798086531
  H         2.8383593220        4.8247992164        5.3772874676
  H         1.7616755398        4.8045700574        4.3384241106
  O         4.1182445245        6.6471681253       17.6741245595
  H         4.5956107342        7.4076598431       18.0566793400
  H         3.1411734422        6.8654569684       17.8236051451
  K        -0.0538654956        2.8691311231       19.0506141824
  O         6.8610030404        1.2718674799       18.0278636085
  H         7.0003703361        1.7953915582       18.8868117497
  H         6.5872901898        0.3215537197       18.2620696039
     270
 i =     5500, time =     5500.000, E =     -4281.3552770343
 Cu        10.1443945456        0.2424519530       25.2328304293
 Cu         2.3898267514        2.7852336142       25.1021056661
 Cu        10.0886744074        0.3331035737        2.1455997179
 Cu         2.4409140645        2.7231599738        2.3756860972
 Cu         2.3627903921        0.2779679158       25.0096610701
 Cu        10.0226575471        2.8108615782       24.8460084684
 Cu         2.4540053497        0.2655195413        2.2119048681
 Cu         9.9753816385        2.7674859004        2.1693672981
 Cu         3.6645994282        1.4753357242       23.3102526975
 Cu         1.0776351012        4.0500469938       23.0853723416
 Cu         3.6602356469        1.6042041421        0.4386688423
 Cu         0.9731912359        4.0402510620        0.3568782253
 Cu         1.2222037045        1.5248575634       23.1196331805
 Ag         3.7943840295        4.0459781984       22.9237957801
 Cu         1.1791234115        1.4163388458        0.4415923621
 Cu         3.8596188625        4.1899014043        0.5566650203
 Cu         4.8805780265        0.1014646381       25.2250389286
 Cu         7.4865490443        2.6155193816       25.1149929255
 Cu         5.0519552262        0.2321029786        2.1280357929
 Cu         7.5451283279        2.7919014086        2.2227386196
 Cu         7.5494718495        0.1072026491       24.9947355717
 Cu         4.8955479422        2.7234115288       25.0172537905
 Cu         7.5586230489        0.1846453254        2.1954949565
 Cu         4.9433051879        2.6751297751        2.1537362400
 Cu         8.7692355401        1.3491849202       23.2885508652
 Cu         6.4238791046        4.0356072872       23.3018139124
 Cu         8.7583588923        1.3692792458        0.4208732007
 Cu         6.1900284237        3.9555342181        0.4618264432
 Cu         6.1028679778        1.1961517933       23.3455306531
 Cu         8.8060006001        3.9706190665       23.0494057769
 Cu         6.1920657261        1.4998177143        0.4080614683
 Cu         8.7382873489        4.0452635920        0.2675544775
 Cu         9.9119265443        5.2373304087       25.0532484660
 Cu         2.4279517989        7.9363772759       25.1638323948
 Cu        10.0261949633        5.3966417699        2.1601464141
 Cu         2.5158560107        7.7636956442        2.3239763742
 Cu         2.3107738614        5.3917525934       25.0137453220
 Cu        10.0009917620        7.9822820825       25.1252272573
 Cu         2.3335957319        5.2800488557        2.1898546253
 Cu         9.9376851151        7.9827277685        2.2763971478
 Cu         3.5405113268        6.6945779294       23.3017759241
 Cu         1.1169296266        9.1210250769       23.3405412070
 Cu         3.6776638573        6.6386644587        0.5208379886
 Cu         1.1060923947        9.1137086537        0.6891212737
 Cu         0.9945637793        6.5758172757       23.2916930783
 Cu         3.6409268404        9.1458285547       23.1056863262
 Cu         1.1530172731        6.7655002896        0.4578301466
 Cu         3.7276350001        9.1859008984        0.4771762435
 Cu         4.7345483299        5.3347168943       25.0708870015
 Cu         7.5200924036        7.9133592969       25.0563365619
 Ag         4.9415934841        5.2217691240        2.6553920410
 Cu         7.5985913536        7.8737743362        2.1938649369
 Cu         7.3635581024        5.3107527407       25.0559928984
 Cu         4.8469069874        7.7719241044       25.2204832648
 Cu         7.6276173498        5.3667035939        2.2811900484
 Cu         4.9911862612        7.9745769220        2.2547108775
 Cu         8.6516826387        6.5708672049       23.3551310369
 Cu         6.1318426361        9.0835253103       23.4298961795
 Cu         8.7846287066        6.5785154769        0.3320142124
 Cu         6.1552258084        9.0533445751        0.4021132214
 Cu         6.0244879974        6.6163025670       23.3793288437
 Cu         8.8522777719        9.0634982567       23.3351609882
 Cu         6.2750495952        6.4975047887        0.4753362926
 Cu         8.7758069025        9.0622140884        0.4198421356
  O         7.5555943229        8.8241864243        5.3977074981
  H         7.0381157303        8.9589741767        4.5547697084
  H         7.9043410979        7.9298272630        5.3100873116
  O         8.1729561069        6.3231894264        5.2908840049
  H         9.1921177130        6.2037275534        5.2466057180
  H         7.8543943508        5.9962168297        4.3623350032
  O         3.3234516728        9.6350762265       15.2378469484
  H         2.5900069653        9.0094475902       14.9104476212
  H         3.9910589049        9.6960246903       14.4541065712
  O         6.4622868962        1.4452590094        5.1905633275
  H         5.7892431334        0.9751395990        5.7019059028
  H         6.2497838400        1.0695075275        4.2663077043
  O         2.6919690901        0.8473895858        5.3078655639
  H         3.2569480788        1.5325331116        4.9218353077
  H         3.3693302718       10.3393372245        5.2146070466
  O         6.3932223328        2.6212916407       13.7438780596
  H         5.6872122346        2.6248307725       13.1107879350
  H         5.9950652160        3.0766250857       14.6150089986
  O         4.0897245657        6.0498067329       15.6093445323
  H         3.2265939888        6.0050594914       15.0530199642
  H         3.7211577100        6.3589595390       16.5594071017
  O         8.1637901178        9.8314765325       20.9814887201
  H         7.3656242790        9.2071270234       20.8803508057
  H         7.9040460964       10.7725568401       20.8264525715
  O        -0.1929333003        4.1723996565       16.7852603289
  H        -0.4017072741        5.0770964580       17.1326039229
  H         9.1421926106        3.7799494051       17.0419387599
  O         4.4781303923        7.5325369208       11.2753971007
  H         5.3154192662        7.0820054443       11.5007705556
  H         4.5079115873        7.6024838548       10.2531883542
  O         0.2963637282        3.9209819505       14.1190763687
  H        -0.5072673591        4.1488533524       13.5620229333
  H         0.0999070443        4.2281455732       15.0462279269
  O         0.3113880163       10.2223056110       19.3501675467
  H        -0.2352229546        9.8407395491       18.6664738048
  H        -0.1256995390        9.7146772917       20.1461491122
  O         7.7091274171        5.9464394157       19.0183264300
  H         6.9498002408        5.6051377320       19.5229744476
  H         7.3230893717        6.6707094082       18.4397083582
  O         8.1454650664        4.2966094756        7.9120860153
  H         7.7425296986        5.1014729184        8.2529464253
  H         8.2645662305        4.3090675422        6.9393309589
  O         7.0337864065        7.7121070568       17.2178506987
  H         7.6892952358        8.4758574138       17.0805523353
  H         6.9252352168        7.4311918020       16.2992069639
  O         9.2851120779        2.5014428307       10.5296956304
  H         9.1567433393        2.0028982268        9.6280637724
  H        -0.1080767035        2.1159476832       10.9301219341
  O         4.3970730447        8.8342090717       17.7682852046
  H         4.1160643404        8.9444397902       16.8312425364
  H         5.2696230889        8.3968936356       17.6371197293
  O         6.2494920029        6.2041389466        9.1309422336
  H         5.8768607216        5.3573903911        9.4608102693
  H         5.9064010640        6.3023993038        8.2534505371
  O         8.4844497359        3.2361663054        5.4026048475
  H         8.0052318187        2.3996733216        5.6069516465
  H         8.6169512880        3.2049257137        4.4539022898
  O         7.2822001457        0.8428915020       11.3166690790
  H         7.5900967978       10.1151147883       11.1457653629
  H         8.1164370688        1.3123433289       11.3429597112
  O         4.1365896007        8.3376484491        8.6258415161
  H         5.0395263699        8.5044882198        8.2280604264
  H         3.4920100730        9.1006099694        8.5357775057
  O         4.5612965795        0.3487050822       20.2528023766
  H         4.6317350422        0.4929017955       21.2432655243
  H         3.9496723140        9.8531860477       20.1073145948
  O         1.0833239575        4.6717103712       20.9076830362
  H         1.9477600653        4.7158063445       20.4002275089
  H         0.7717201206        5.6056319375       20.9344031195
  O         3.8034221165        2.2133302062       12.3727534082
  H         4.1540101791        1.2668816153       12.3470637532
  H         3.0472169031        2.0673581921       13.0483673230
  O         0.5085371056        5.2015105451        9.6764036102
  H        -0.0422417264        4.4555595890       10.0192402656
  H         1.0975384685        4.7990828819        8.9835266479
  O         5.4514725270        3.8517257501       16.0050036672
  H         4.9115656471        4.5826934763       15.6551011877
  H         4.8775010519        3.0456423527       16.0802487193
  O         7.5472525480        2.3964121782       20.4780869448
  H         7.5141023581        2.1037973955       21.4156963011
  H         6.7663137064        2.9437137585       20.3613344381
  O         3.2669021023        4.7001658969       19.4571151516
  H         2.9959092277        5.5362930655       18.9536265322
  H         3.0629596951        3.9480699930       18.9183701714
  O         8.2551236043        8.5612166886       10.7692370440
  H         9.1721215158        8.6637279652       11.0417525437
  H         7.9769607194        7.8253275962       11.3570198296
  O         4.3078933167        1.7128534652       16.5730039033
  H         3.8694520440        0.8845282264       16.2652180699
  H         5.1815061292        1.4853033696       17.1081763055
  O         0.6526513906        6.5997317604        5.2574705920
  H         0.6655819574        7.1026644679        4.3403325540
  H         1.1823221308        5.7504199994        4.9828152970
  O         0.5323645974        9.2366516592       11.5329898002
  H         1.0637432241       -0.1940000170       11.2302238775
  H         1.0841764225        8.4251327187       11.5389349568
  O         0.5224882001        9.1811784901        7.6829696333
  H         0.2752277397        9.2071809334        6.6778251328
  H        -0.0126511862        8.3914605970        8.0466077486
  O         1.8659440751        6.7257273251       11.4737769324
  H         2.8844348523        6.7919386099       11.2868300188
  H         1.4600016419        6.1306106181       10.8003587297
  O         6.6406398861        9.3745318922        7.9183088054
  H         7.0017018960        9.1570277055        6.9489767873
  H         7.1790163685        8.7834782530        8.4663755953
  O         2.4613532702        4.3085886979        8.2861334089
  H         3.1563060444        3.9687465900        8.9014150297
  H         2.7586284893        5.1845181792        7.8659299822
  O         6.2377823704        8.3885678978       20.4615699432
  H         5.6820554624        9.1077962273       20.1905974654
  H         5.6726602483        8.0599483019       21.2128067657
  O        -0.3017329637        0.0756556789       13.8793416169
  H         0.4355630996        0.7915969716       13.9724594598
  H        -0.0521926001       -0.2935554354       13.0003949949
  O         7.1838150872        0.0679493059       14.6674988774
  H         6.7770308089        0.9840651689       14.4480488960
  H         8.0764560047        0.1044921084       14.2133064754
  O         2.1749203892       10.8863064304        8.5402461148
  H         1.5528777438       10.2451494448        8.0845551666
  H         2.9732891291        0.8613332759        7.9798078102
  O         2.9371868502        2.2056878533       18.7810811744
  H         3.4350068078        1.7063118089       19.3942145178
  H         3.3491559703        1.9427532446       17.8827659838
  O         9.2472381344        7.2377900213        8.5299666181
  H         8.6505632441        7.5599712582        9.2374905657
  H         9.5586004050        6.3611429879        8.7678256193
  O         2.7299294098        6.6480915543        7.0993811472
  H         1.9159382063        7.0052227614        6.6774103946
  H         3.2479886708        7.3258113630        7.6474500916
  O         1.4893930245        1.3976714717       10.9013811984
  H         1.8130963217        1.3123231978        9.9735958148
  H         2.2639078421        1.6796519865       11.4056167215
  O         7.5703672430        3.5870208629       17.8172875633
  H         6.9056861963        3.9293489667       17.1595627242
  H         7.7109594200        4.4833667489       18.3002859941
  O         8.3834471696        4.0450591022       12.4802944637
  H         8.5245482813        3.4754001313       11.6496763000
  H         7.6420153605        3.5333151819       12.8984651711
  O         8.5565175129       -0.0650965040       17.1280595636
  H         8.2176918411        0.2545590845       16.2725906039
  H         7.9036201800        0.3593750644       17.7446586770
  O         9.8861861492        7.1421588102       20.3714422596
  H         8.9929936438        6.7259423117       20.2932457820
  H         9.8497845447        7.7750129713       21.0897942679
  O         4.3900163541        3.7687193840        5.6549729865
  H         5.0920468029        3.5352777783        5.0182419058
  H         4.7718974068        4.5733931753        6.1383038415
  O         1.8988210573        6.0190946904       14.0612408170
  H         1.8794905788        6.3034835283       13.0226777214
  H         1.3183686166        5.1875681899       14.0435964614
  O         6.5081389406        2.2059252209        9.0987671994
  H         7.2210426350        2.7372828690        8.7106162754
  H         6.9380280084        1.7372351000        9.8959290156
  O         5.7443171599        6.4210275172        6.3614255587
  H         6.7062148384        6.2242033935        6.1217536519
  H         5.3464268020        6.7482427164        5.5227810646
  O        -0.0044101480        7.0205961270       17.5742034964
  H         0.2118460738        7.8038982400       16.9941067183
  H        -0.2137826550        7.3107559337       18.4669583502
  O         1.8769748259        1.9312839956       14.2716928890
  H         2.3864457869        1.9556260980       15.1011889796
  H         1.2759160842        2.7925825817       14.2453543157
  O         8.9634306554        1.0696979853        8.2573937821
  H         8.0509678239        0.7986504431        8.1234152566
  H        -0.6948875805        0.2943295847        8.0389490000
  O         4.5598998396        8.8965673164        5.2419656603
  H         4.0223642437        8.3996903004        4.6003562396
  H         4.1411524692        8.5624848912        6.0675125377
  O         5.7040545179        4.4617624901       20.2654557836
  H         5.5242135171        4.5140966118       21.2707184906
  H         4.8336527536        4.6077378880       19.9616586848
  O         7.0010663258        6.5320514461       12.2311034742
  H         7.3874247316        5.6114032541       12.1913800227
  H         6.7855908875        6.8482154640       13.1468657250
  K         0.6439235898        2.2541441857        6.7962798495
  O         4.6783926805        9.7625620266       12.8316819749
  H         4.5147959789        9.0295760948       12.2028732011
  H         5.6290154695        9.7842794319       12.6989675919
  O         0.8904869587        8.2148445317       15.2368255528
  H         0.4586120024        8.8830797542       14.6632815288
  H         1.0575358882        7.3806451717       14.7817652970
  O         2.7678957689        8.4165589020       20.1311111375
  H         2.0009697773        8.9704386825       19.9444345042
  H         2.7807677321        8.3215081811       21.1355598778
  O         6.2142240204        7.4107475794       14.5902652953
  H         6.2261413935        8.3304336675       14.3178192306
  H         5.2724288799        7.2402478250       14.8941319302
  O         4.4693870712        1.3282769714        7.3942312878
  H         5.3033583534        1.4455096531        7.9073353452
  H         4.5099655684        2.2230597569        7.0751646332
  O         4.4669838956        3.8552674666       10.1438021053
  H         4.1008543083        3.3994972793       10.9688590188
  H         5.2104739169        3.2970693825        9.7795549258
  O        -0.0974130181        9.7135949365        5.0218879920
  H         9.2362292384        9.4868260372        4.7413626455
  H         0.5782271030        9.4923317782        4.3407568456
  O         1.7955244461        4.3853851001        5.0098949847
  H         2.7627504851        4.1935711367        4.8972553834
  H         1.4019058008        4.1844872703        4.1021455350
  O         2.6246271020        6.6006594856       17.9783807973
  H         3.0302965341        7.5715238482       18.1601457044
  H         1.6238906835        6.7814218065       17.7446648233
  K        -0.1071063101        2.6290556067       19.7505867693
  O         6.4455753164        1.3129389414       18.1295155731
  H         6.9391723286        2.1864213104       18.3193806672
  H         6.0691073871        1.0444953877       18.9722578877
     270
 i =     6000, time =     6000.000, E =     -4281.3510604668
 Cu        10.1345225837        0.3434786200       25.0971968259
 Cu         2.3589505044        2.6995432030       24.8133091555
 Cu        10.1800291062        0.2927931557        2.1607538826
 Cu         2.4672951146        2.9025720533        2.1948246177
 Cu         2.4457070854        0.2157879970       25.1099526824
 Cu        10.1866041096        2.7516250491       25.0524967576
 Cu         2.4951320774        0.2788643691        2.2191321152
 Cu        10.2498534556        2.9178739843        2.1246668154
 Cu         3.7824353132        1.5228664371       23.3219508695
 Cu         1.3180669574        4.1654445643       23.2055134866
 Cu         3.7744974619        1.6566389817        0.4969876147
 Cu         1.2402432563        4.0909572225        0.3440630599
 Cu         1.1098921243        1.2945407588       23.2738277364
 Ag         3.9507361417        4.2783654528       22.8900614844
 Cu         1.2839242288        1.5788473530        0.5120779280
 Cu         3.7003661904        4.1066617953        0.5654256503
 Cu         5.1349014463        0.3079455915       25.2309787645
 Cu         7.6701507794        2.8602607771       25.0642565810
 Cu         5.0617241403        0.3251257208        2.4622105182
 Cu         7.6274605585        2.8515631197        2.1714367880
 Cu         7.6410352666        0.2193590162       25.0662159132
 Cu         5.0262070351        2.7599737309       25.1960477557
 Cu         7.6996380715        0.3790132276        2.3144559129
 Cu         4.9673305543        2.7528617007        2.1488046318
 Cu         8.7759562293        1.5730253983       23.2463412811
 Cu         6.5438932881        4.0290746119       23.4131228107
 Cu         8.8333242655        1.4897209789        0.4488815626
 Cu         6.3468436253        4.0729150583        0.3646525907
 Cu         6.3723738040        1.5307238169       23.3824910235
 Cu         8.8878197166        3.9593463347       23.1814488398
 Cu         6.3321062413        1.4713952031        0.5889360649
 Cu         8.9652699614        4.0544998018        0.3831232935
 Cu        10.1127612091        5.2482492561       24.9156632471
 Cu         2.3625718924        7.8832509003       25.1378647853
 Cu        10.1834117416        5.5978251649        2.2723930965
 Cu         2.4915958112        7.8320500968        2.2445824218
 Cu         2.4796484690        5.3645883508       25.0740091395
 Cu        10.1637809646        7.8991829145       25.0781477391
 Cu         2.4312099023        5.3767581344        2.2105316733
 Cu        10.0225913139        8.0198162528        2.2230019748
 Cu         3.6754468205        6.7739125480       23.2696295864
 Cu         1.3232080623        9.1067207668       23.5474787830
 Cu         3.7317231592        6.5496969556        0.3339734527
 Cu         1.0684668612        9.2469178580        0.4361025316
 Cu         1.0872989956        6.6316966886       23.3520098451
 Cu         3.6978796004        9.3884911991       23.4268360093
 Cu         1.1452872006        6.6468087431        0.5214591921
 Cu         3.6448665375        9.3619075142        0.3159530352
 Cu         5.0106189523        5.2815732321       25.0082148186
 Cu         7.5542148082        7.9979883624       25.0061297297
 Ag         5.0753511373        5.5350004339        2.6261158506
 Cu         7.5728710878        7.8659722338        2.0633255624
 Cu         7.5051299217        5.4483220525       25.0907987374
 Cu         4.9914324045        7.9938331270       25.3045184326
 Cu         7.7457074967        5.3903049347        2.1900214598
 Cu         5.0464071991        8.1590825634        2.2973743374
 Cu         8.7074906934        6.5466628320       23.3486472971
 Cu         6.2652416074        9.3000168465       23.3262469969
 Cu         8.8755319378        6.7034130998        0.3012761661
 Cu         6.3113653809        9.2677383160        0.5822603599
 Cu         6.2383324051        6.7218379352       23.3091675743
 Cu         8.9660097227        9.1104280423       23.3044898209
 Cu         6.1945612445        6.5345407011        0.4944033635
 Cu         8.8139477310        9.2408723736        0.4072760932
  O         7.3659622689        9.2579074499        4.8613695322
  H         6.7398508651        9.2246845005        4.1015199801
  H         7.7554388658        8.3532875236        4.8146512965
  O         8.3912826346        6.4356773608        5.1807902627
  H         9.3383306675        6.7901369576        5.3432546505
  H         8.3117353533        6.5482816877        4.1885607508
  O         3.3861304571        9.4871419514       15.1813451798
  H         2.6384213055        8.8693020445       15.2510377806
  H         3.6720622990        9.5679624061       14.2938564001
  O         6.0068393403        2.2947266589        5.0029310077
  H         5.5660234552        1.7592137981        5.7548977839
  H         6.0495086697        1.6598105588        4.2515284791
  O         2.2571841126        1.4137902606        5.0239532307
  H         1.8566320897        1.7598180247        4.1817796977
  H         2.7852572374       10.8716288504        4.8053812092
  O         5.9698782269        2.3638066629       13.3561361971
  H         5.1870849443        2.1645686490       12.7409295318
  H         5.6556684246        2.9459410408       14.1051370170
  O         4.2998510441        5.9117383277       15.2916020990
  H         3.4952429572        5.7722925541       14.6843904061
  H         3.8297236817        6.0233356212       16.2355749364
  O         7.5504770851        9.1236294496       20.3433345329
  H         6.8292221529        8.4506521454       20.3468379574
  H         7.5515410481        9.4317910302       21.2902212672
  O        -0.4164300484        3.3670777021       17.0563515441
  H         0.0144883718        4.2021323486       17.3397180652
  H         8.8954503176        3.4864600986       17.3830650060
  O         4.2540868043        7.3307575696       11.3488053566
  H         4.9511764233        6.6736347304       11.5044972531
  H         4.3238205567        7.6127442133       10.3898660549
  O         0.0991520065        3.6710528917       14.3495834934
  H        -0.6690620135        3.8225713147       13.7026002021
  H        -0.2803375742        3.4874600106       15.2900618272
  O        -0.3972419045        8.9971382003       19.0068747075
  H        -0.7442426570        9.2636615202       18.0841254604
  H        -1.2466121250        8.9388911470       19.5526617721
  O         7.3179265733        6.1120556881       18.7576275342
  H         6.5403847611        6.3933071361       19.3261495973
  H         7.4093498363        6.9614124958       18.1707591735
  O         7.8358290184        3.5573245459        8.4284219422
  H         7.3084346486        4.2602206747        8.8297495424
  H         7.9382113303        3.8013088622        7.4594758845
  O         7.3781453005        8.0912041830       16.8525545838
  H         7.4291890879        9.0504958506       16.7988521000
  H         7.0972914609        7.7941859513       15.9532131400
  O         9.5440746881        2.7735471721       10.5422663255
  H         8.8100815691        2.6416461027        9.8807772040
  H        -0.0894244550        1.9785205472       10.4088095356
  O         4.4600023147        8.4957444712       17.5608432577
  H         4.1984880510        8.9567763455       16.6924739122
  H         5.3268937453        8.2043696317       17.3562815163
  O         5.8235387082        5.5402970310        8.5912224699
  H         4.9749592937        5.1981412447        8.9901442570
  H         5.6902962072        5.6559444121        7.6588831314
  O         8.0805358505        3.7481336765        5.9416985932
  H         7.3404596169        3.1796181849        5.5861148235
  H         8.0878543529        4.6350026450        5.4492728970
  O         6.7715020969        0.1164720571       11.3430317872
  H         7.2725154790        9.4368808320       11.2045177917
  H         7.4667930786        0.7314672087       11.6712339467
  O         4.5754432530        8.0967708726        8.7147621808
  H         5.3148337543        8.5249470357        8.1588351506
  H         3.8889768903        8.8158652226        8.5160100693
  O         3.1637058406       -0.1318835242       20.7275686919
  H         2.5284204534        0.2873122593       21.2590078373
  H         2.7080361951        9.2100584522       20.5436538919
  O         0.8400627496        4.0018721450       21.0824103413
  H         1.6520565356        4.0377672073       20.4831931764
  H         0.2814385737        4.7891091682       20.9063457655
  O         3.3757666027        1.5703446974       12.4089442005
  H         3.6925859574        0.6775380607       12.5150165718
  H         2.7201237796        1.6789692845       13.2119448554
  O         0.2828947803        5.1211788583        9.6125916396
  H         0.0410611235        4.1472562197        9.9602090821
  H         1.0978905317        4.8288221692        9.1164351065
  O         5.3123447481        3.5791503268       15.6138311539
  H         4.8940208418        4.4687873061       15.3422835558
  H         4.6080281388        2.9750781357       15.7977493374
  O         6.6846017160        2.1335021645       20.5027513574
  H         6.6411036098        1.9242966623       21.4754030901
  H         6.3683434769        3.1364467572       20.3214087415
  O         2.9023287242        3.9057166990       19.4093328959
  H         2.7933199157        4.4501319020       18.6041115395
  H         2.4707336182        2.9879932886       19.0985752358
  O         8.0329049694        8.0824102214       10.8593320853
  H         9.0701187820        8.2133206454       11.0202639276
  H         7.6721421025        7.3431762692       11.5061266819
  O         3.3618274635        1.4382602434       16.5861286079
  H         3.5248225963        0.5716498237       16.1111850132
  H         4.0495277440        1.4205914307       17.2786805362
  O         0.8093663167        7.3176256540        5.3652448708
  H         0.7709852354        7.3280009795        4.4175988365
  H         1.1410278139        6.3693526572        5.4183608466
  O         0.3669136076        8.8429625044       11.3418494284
  H         0.8237513690       -0.6145059694       10.9237257047
  H         0.9699176263        8.0490527700       11.3317994052
  O         0.1694537989        9.2182712617        7.6300112629
  H        -0.2505846395        9.5867426521        6.8456791316
  H        -0.3173060099        8.3734547330        7.8007749778
  O         1.6645933560        6.3371962174       11.4332445172
  H         2.5923750203        6.4532894354       11.1121344228
  H         1.1391848769        5.7120114146       10.8021564818
  O         6.6174771504        9.1488845818        7.2974250032
  H         6.6312877315        9.3404234225        6.3340891237
  H         7.1441835861        8.3263204636        7.4099078788
  O         2.6044401250        3.4212934945        8.5819868360
  H         3.2922842656        3.5195350106        9.3361103626
  H         2.8460482364        3.8794909289        7.8090369500
  O         5.2673870404        7.8074566702       20.2711572990
  H         4.7674349380        8.3870108198       19.6057866630
  H         4.7785609390        7.6935266713       21.1624895655
  O        -0.0561237296       -0.5025312121       13.8890556994
  H         0.6013323656        0.2160628902       14.0723602473
  H         0.0487653203       -0.8578230908       12.9564024982
  O         7.5799843061        0.3710445398       14.2395918679
  H         7.1155482942        1.1006494609       13.8190897826
  H         8.5283231963        0.2218240531       14.0001292946
  O         2.6434855447       10.0814998063        8.3068213085
  H         1.8210197647        9.9586090687        7.7980391953
  H         3.2905254384        0.4862885693        7.8700914016
  O         1.9554584006        1.6600914906       18.7898359470
  H         2.4084100856        0.7960342762       19.2415229506
  H         2.2515881898        1.5344382382       17.8569149297
  O         8.7728254914        7.1511343452        8.3978169718
  H         8.2497266552        7.2790451751        9.2686891715
  H         9.2618774531        6.2376578917        8.4619980014
  O         2.8236709196        6.1810770941        7.8069910880
  H         2.0409250905        6.7658437461        7.6079126797
  H         3.5570777949        6.8252822527        8.0197904678
  O         1.3580730802        1.0012389573       10.3638021184
  H         1.9065272984        0.7793351650        9.5374267329
  H         1.9910487091        1.3888344390       11.0281309480
  O         7.1780244918        3.8584926696       17.6299671058
  H         6.7232481717        3.7893340936       16.7575960430
  H         7.0236149454        4.7497575240       17.9645432550
  O         8.1508189545        3.5854277161       12.6539011094
  H         8.7265326361        3.1747798783       11.9735184999
  H         7.2467443834        3.1313233651       12.7565548085
  O         7.8942781166        0.5391116127       16.8386276828
  H         8.0288207363        0.5677886561       15.8466719920
  H         6.9883920989        0.8635282017       17.0825319919
  O         9.6408058721        5.8347413313       19.9148174815
  H         8.7285050154        5.7880685968       19.4658388845
  H         9.5902554565        6.5424982284       20.6336558087
  O         4.1770757130        4.1042831298        5.7541253760
  H         4.5274126807        3.4543169280        5.1057464881
  H         4.8238024690        4.8748940733        5.6944056179
  O         1.7463657520        5.7553091760       14.1013618425
  H         1.6776638125        5.7524064049       13.0764755191
  H         1.1861111094        4.9097955138       14.3924742655
  O         6.0557132751        1.8528551589        9.1698864901
  H         6.7139188337        2.4738625961        8.6852193949
  H         6.5705472975        1.2594997896        9.8055829500
  O         5.4831515336        6.3194974692        5.8039628529
  H         6.2965171041        6.4400451536        5.2582016221
  H         4.8722004674        7.1257666566        5.7172348631
  O         0.5742198525        6.1415593590       17.5524039631
  H         0.4327892013        6.8291487120       16.9082040320
  H         0.1863720947        6.4077313706       18.4384104062
  O         1.6153952199        1.6471762705       14.2662928554
  H         1.8516063920        1.5098023984       15.2261017505
  H         1.0309184878        2.4617115974       14.2889153459
  O         8.5443838551        0.4631771276        8.9920350494
  H         7.8366175987        0.0163569282        8.5397236840
  H        -0.9182435715       -0.1015472451        8.7278025655
  O         3.4881896756        8.6091929074        5.5887760031
  H         3.6893476088        8.8702593420        4.6298523006
  H         2.5601762027        8.2600020297        5.4916115122
  O         5.3647190773        4.4627648000       20.2364217946
  H         5.2103069273        4.8487435839       21.0730802361
  H         4.4262791669        4.1729424110       19.8465255908
  O         7.0170003444        6.3323455685       12.3207222747
  H         7.3787305666        5.4277180963       12.4185292335
  H         6.7695336406        6.7011766766       13.2148236345
  K         0.1878189328        2.3687887659        7.0450282373
  O         4.6257626714        9.3976892615       12.8054860880
  H         4.5089999597        8.6231887698       12.2041065886
  H         5.4365750353        9.8566678540       12.4828601198
  O         1.3642170478        7.9630882508       15.5744099118
  H         0.6918901923        8.5308010471       15.0638561529
  H         1.4426659046        7.1593815857       15.0423979472
  O         1.9123681381        7.7008086738       20.0404861494
  H         1.1663665123        8.1773949739       19.7074852612
  H         1.7751045345        7.4802853742       20.9789935958
  O         6.1243860916        7.5320154097       14.4881817916
  H         5.6405438643        8.2815331132       14.0939100735
  H         5.4133163286        6.8606707688       14.7863574015
  O         4.6725309919        1.3906613737        7.1969649277
  H         5.2383069678        1.3656481166        8.0370358933
  H         4.1889450224        2.2427377668        7.2642178116
  O         4.3483736899        3.6057562809       10.6259935673
  H         3.9125019165        2.9490171177       11.2152154313
  H         5.0649855163        3.0413742653       10.1816320915
  O        -0.6664662871       10.7122367123        5.5061033012
  H         8.6873956436       10.3732995867        5.1521309638
  H        -0.0673316641       10.6518780630        4.7474741943
  O         1.4799789962        4.4799111073        5.2915341545
  H         2.4597569103        4.4009154960        5.1071184113
  H         1.1229870976        4.6388782159        4.3973084119
  O         3.1465010015        6.1374143725       17.4720784835
  H         3.5204566302        6.9125320253       17.9553563745
  H         2.1023448826        6.2291026568       17.4201375931
  K        -0.8680033050        1.9614488296       19.8402613229
  O         5.5393104098        1.3957332316       18.1316140784
  H         6.0887598370        2.2006607221       18.3450299745
  H         5.4355759622        1.0966995868       19.0715588103
     270
 i =     6500, time =     6500.000, E =     -4281.3534318771
 Cu        10.1484548808        0.1293168884       25.1121353246
 Cu         2.4960188505        2.6906022035       24.8910737483
 Cu         9.9984781374        0.2745764084        2.0949140977
 Cu         2.4118096052        2.7537599875        2.2511479207
 Cu         2.4185229193        0.2845463216       25.0431684113
 Cu        10.2397435467        2.7166834566       24.9588798390
 Cu         2.4340911256        0.2466892287        2.3183428720
 Cu        10.1762062847        2.9360947247        1.9920333583
 Cu         3.7474695470        1.6400382054       23.1787368168
 Cu         1.3301852888        4.1051444728       23.3125403685
 Cu         3.8173013739        1.6169454844        0.3067639107
 Cu         1.2838227683        4.1287698560        0.3462936000
 Cu         1.0883347023        1.4802159632       23.2452190736
 Ag         3.8534441503        4.0527935455       22.9054838497
 Cu         1.3525726113        1.5097545700        0.4112553462
 Cu         3.7581647004        4.0988853552        0.4652414094
 Cu         5.0055109730        0.1968861497       25.0380471876
 Cu         7.6110961145        2.8666964745       25.0279254899
 Cu         4.8834085752        0.2820680543        2.2714848813
 Cu         7.4524969593        2.8689556455        2.2134855754
 Cu         7.4979573435        0.3265548910       25.0093309869
 Cu         5.0319278216        2.9246786991       24.9835098985
 Cu         7.4149575833        0.2889335963        2.3588297097
 Cu         4.9272032091        2.6623627859        2.2312263226
 Cu         8.8346479633        1.4112936578       23.3020774816
 Cu         6.4630446410        4.2208309448       23.3193607444
 Cu         9.0136382114        1.6284535059        0.3744730468
 Cu         6.2167415163        4.0720051191        0.5706473812
 Cu         6.4283387142        1.4900106848       23.3062281831
 Cu         9.1188446790        4.0127226463       23.0723802427
 Cu         6.4118944803        1.5984106302        0.3626323806
 Cu         8.6721263854        4.1268795363        0.4134094071
 Cu        10.1379664893        5.3085104890       25.0475651797
 Cu         2.4229429836        7.8965450263       24.9598307568
 Cu        10.0245293348        5.4063568118        2.1967091063
 Cu         2.5045337074        7.8946460486        2.3055955453
 Cu         2.4471865657        5.4554868372       24.9620277411
 Cu         9.9450889710        7.7456271614       24.9362931548
 Cu         2.3810008927        5.3537992181        2.1318350082
 Cu        10.1394455141        7.8251549258        2.2550260828
 Cu         3.6956207285        6.7164687886       23.0420901458
 Cu         1.2269983994        9.2096330882       23.3307532328
 Cu         3.6060655469        6.5923394299        0.5260069808
 Cu         1.1652402045        9.2080863045        0.5186431635
 Cu         1.1822076471        6.7731230898       23.1988006998
 Cu         3.6786802872        9.0652131526       23.2423533161
 Cu         1.0960675735        6.7027287338        0.4872185834
 Cu         3.6548699981        9.1997917391        0.4693669454
 Cu         5.0978721927        5.5545022458       25.1613594209
 Cu         7.4310880763        8.0441379711       25.1456901907
 Ag         5.0917830873        5.3569505170        2.7060870658
 Cu         7.5081646582        7.9868952796        2.3780915085
 Cu         7.5294221215        5.3477660186       25.0816781314
 Cu         4.9428907336        8.0136220583       25.1049838827
 Cu         7.6312478238        5.5034784107        2.3432035051
 Cu         4.9554389445        8.0839279629        2.3342960794
 Cu         8.6013272213        6.5716928666       23.0739671271
 Cu         6.2284468332        9.1890661560       23.2483268807
 Cu         8.8502820825        6.5750764289        0.3966533088
 Cu         6.3433784113        9.2351972736        0.6798162067
 Cu         6.2670926098        6.6566586482       23.2813148991
 Cu         8.8334028065        9.2258342862       23.3218208864
 Cu         6.1833652468        6.6297525291        0.6507045526
 Cu         8.7353338564        9.1259299224        0.5281285515
  O         6.9089925528        8.8480286772        5.4557716337
  H         6.3851120070        8.8868861094        4.6249412305
  H         7.3991704085        7.9545290447        5.3614360980
  O         8.4965068789        6.6841489585        5.3253486079
  H         9.5343911343        6.9102519885        5.4710322905
  H         8.5091233825        6.4296586068        4.3740460721
  O         3.1714085665        9.3203085997       15.6785118731
  H         2.3564685839        8.7556245235       15.7422065326
  H         3.4995360735        9.2422227833       14.7657795573
  O         5.1606819066        1.6123488338        5.2351195341
  H         4.4922623255        1.4909442004        5.9027727745
  H         4.8879797510        1.3590912855        4.3223282775
  O         2.2941780339       -0.0573239470        5.6330555352
  H         2.1983700674       -0.1205769815        4.6653838578
  H         3.0606195767        9.5529659592        5.7092382828
  O         5.9578631834        2.4575732710       13.7275280857
  H         5.0215858914        2.2251716464       13.4526129244
  H         5.8411123774        3.1173241643       14.4926769161
  O         3.6227786583        5.9196965666       15.4329858936
  H         2.7620100029        5.8891758130       14.9264259302
  H         3.4174179263        5.9705310363       16.4667909984
  O         7.8133434108        9.7090300969       20.5788484131
  H         7.1247810543        8.9924020944       20.5916148396
  H         7.5412650285       10.2535888514       21.3415367771
  O        -0.6491259924        4.4574718191       16.7987136460
  H        -0.0997373882        5.2240125099       17.0160097249
  H         8.7105177601        4.5680970829       17.1967155448
  O         4.3489790523        7.1390505251       11.2596417879
  H         4.9136063928        6.3566637251       11.5615125754
  H         4.7477898537        7.4819482387       10.4046742073
  O        -0.3156394876        3.6159586678       14.1550280443
  H        -1.1078648458        3.6467013800       13.5586694192
  H        -0.5047511885        3.8215416088       15.1016300969
  O        -0.0226035113       10.0182333412       19.0906805077
  H        -0.3188432870        9.8273468477       18.1949977047
  H        -0.7176498256        9.6751427569       19.6681034225
  O         7.7457616167        6.2778243290       19.2141376438
  H         6.9597574943        6.8734305922       19.4552952653
  H         7.8510291157        6.5188705367       18.2528200493
  O         7.8903251610        3.5087297822        8.2714807068
  H         7.4062260126        4.3251535657        8.6816902384
  H         8.1469359163        3.6190755570        7.3292318588
  O         7.4887621478        7.3013752539       16.6445427934
  H         8.0403243827        8.1393631967       16.6896798372
  H         6.9887776096        7.3623454477       15.8101213725
  O         9.5589850178        2.6305415519       10.4471809054
  H         9.3549504869        2.3992646923        9.4812684510
  H         0.2114830206        2.1284928381       10.5294242416
  O         5.1559974915        8.7394601563       17.5561723077
  H         4.4315018407        8.9801783517       16.9512871041
  H         5.8656942358        8.2913203549       16.9850960389
  O         6.6865401960        5.7663714624        8.9711835672
  H         6.1070953094        5.9452483937        9.7324846928
  H         6.1255559201        5.9848276363        8.1871154747
  O         7.7435017691        3.0188667018        5.2620381979
  H         7.1583523796        2.2761267347        4.9662288235
  H         7.7750558138        3.6305233285        4.4810435973
  O         6.6895402552        0.0143115601       11.5749956544
  H         7.1384294779        9.3613960117       11.2035425331
  H         7.1248662031        0.3227177200       12.4238119718
  O         4.7179704244        8.2310406462        8.7527236798
  H         5.4823486830        8.7503619572        8.2859526886
  H         4.0275448543        8.9852424548        8.7694704316
  O         4.5498405720        0.6193096881       20.3229366089
  H         4.8115042870        0.5662765032       21.3169853093
  H         4.0661992096        9.9615883103       20.2429428142
  O         0.7867237362        4.5827030859       20.7015418051
  H         1.7969776022        4.6961235961       20.4163829707
  H         0.2285801891        5.4293310428       20.6788642576
  O         3.6767460305        1.7312925204       12.6695312819
  H         3.6727480951        0.7610639729       12.7058245688
  H         2.7903874777        1.8814935565       13.0954663626
  O         0.6163752980        4.9511454994        9.8586595190
  H        -0.1543155788        4.3057722101        9.8061225911
  H         1.2358471092        4.3611339999        9.3645411405
  O         5.1846716012        3.8978040291       15.8519766140
  H         4.4119003369        4.5086716822       15.6357683953
  H         4.7771837299        3.0408317830       16.0796258857
  O         8.1190896213        3.1754725628       20.9919745191
  H         7.7767879668        2.4291115287       21.5338807280
  H         7.2704132440        3.6003347133       20.8299856551
  O         3.3651247563        4.4445084840       19.9270442483
  H         3.4639005302        5.0919559932       19.1513015906
  H         2.9605439673        3.6322410413       19.5069500514
  O         7.8504064731        8.1605225014       10.6950185967
  H         8.8571721038        8.3178499740       10.7662128832
  H         7.6805600426        7.3916541691       11.3148781692
  O         4.0353217860        1.5469731095       16.7103140257
  H         3.6463104050        0.7261175968       16.3019261750
  H         4.8989491229        1.4171259880       17.1790572224
  O         0.9019341869        6.9468221714        5.2251141253
  H         0.8980727235        7.0768217576        4.2289301107
  H         0.9683190937        5.9314462111        5.3684490631
  O         0.2561995034        8.8967030664       11.6188526750
  H         0.8164808526       -0.6615839765       11.2250037684
  H         0.7130916513        8.0147616254       11.4645939410
  O         0.7316485887        8.9378584973        7.5901419410
  H         0.8636356932        8.8176468688        6.5623710350
  H         0.1430335629        8.1991614698        7.8514009316
  O         1.5937794043        6.4801791171       11.5215488285
  H         2.5088258537        6.6216413200       11.1687095877
  H         1.2481957645        5.6917514392       10.9445293868
  O         6.9072352827        9.5805441788        7.9764300892
  H         6.6840479208        9.7320665222        7.0155435053
  H         7.5836159539        8.9088676886        7.9924693650
  O         3.0334203774        4.1007951043        8.6316887582
  H         3.5179668206        3.9968864160        9.5057240965
  H         3.1862692671        4.9837037905        8.2209858215
  O         5.8627392935        7.8450746810       20.0021385734
  H         5.3628787258        8.1971963077       19.1605682155
  H         5.3292908461        7.8234089485       20.7951710769
  O        -0.2055600567       -0.2987313440       13.9853312291
  H         0.4891426222        0.4468918640       13.9574579118
  H        -0.1264538934       -0.7669802540       13.1259043167
  O         7.5228895699        0.4527789288       14.6514742796
  H         7.0426984330        1.2056704890       14.3550200772
  H         8.3956111631        0.3039291465       14.1634816992
  O         2.7588132190       10.0887401853        8.7206379681
  H         2.0118432169        9.7608518049        8.1857410436
  H         3.2424333948        0.6547873752        8.1877042913
  O         2.4860805215        2.2256037739       18.8696756795
  H         3.1639270801        1.7875798395       19.4930203955
  H         3.0467139890        2.1181837372       17.9715444985
  O         8.9447457296        7.2960317654        7.8876690993
  H         8.3513238655        6.9064941841        8.5771451991
  H         8.9462670402        6.6079256032        7.1795598490
  O         2.9160107392        6.6436579173        7.8493232133
  H         2.1013505566        6.8698504202        8.2531912677
  H         3.7119609036        7.2297578450        8.2163090046
  O         1.5739716053        1.0177272524       10.8208156047
  H         2.1051701363        0.8203143188       10.0272047500
  H         2.2322719441        1.4620122763       11.3579926745
  O         7.1499152060        4.0135940379       17.7672292929
  H         6.3944449580        4.2242558942       17.2037100999
  H         6.8672070436        4.4361164230       18.6200451453
  O         7.8746636401        3.4326112196       12.4045101221
  H         8.1177154440        2.9208488533       11.5461012697
  H         7.0973479226        2.9556893705       12.8039404163
  O         8.4508768120       -0.3951683647       16.8747695919
  H         7.8768241061        0.0217273341       16.1741400052
  H         8.0136693760       -0.0539181620       17.6477859648
  O         9.8742969976        7.2128271014       20.1739621337
  H         8.9417208938        7.0219035281       19.7948356459
  H         9.8311612446        7.9992707693       20.7322902807
  O         4.0815034234        4.1592624251        5.1201203831
  H         4.6529207903        3.3427451005        5.0046092073
  H         4.6632350559        4.6788019339        5.7612250015
  O         1.4175184084        5.8227140250       13.9845256338
  H         1.5721143569        6.0770866359       12.9709022810
  H         0.8478047669        4.9954604469       13.9481714277
  O         6.0115828538        1.9273887087        9.3766709524
  H         6.8104053218        2.3059730775        8.9251099852
  H         6.3467971959        1.1335790377        9.8755348977
  O         5.6107359880        5.9845398598        6.3792629698
  H         6.3640387478        5.8269881698        5.7418283955
  H         5.2010386131        6.8375645850        6.0203673229
  O         0.9402104502        6.6367429602       17.9197068955
  H         0.7608725102        7.2857361243       17.2059168082
  H         0.5252409027        6.9747136841       18.7175567284
  O         1.5489220416        1.9060317049       14.1786810586
  H         1.9989875180        2.0729952875       15.0248006425
  H         0.7990198616        2.6065180333       14.0953952159
  O         9.1639569271        0.9452395288        7.9132055525
  H         8.2782642516        0.5458974968        8.0409883385
  H        -0.3737465024        0.1972549051        8.0537094585
  O         4.0118181957        8.0012502143        5.4857935783
  H         3.6308842471        7.7005641913        4.6003277462
  H         3.3280540670        7.5824089558        6.0884439687
  O         5.9463402337        4.5020169279       20.0843523323
  H         6.2010553776        5.3006447893       20.5663151007
  H         4.9745135143        4.3505688184       20.1287022007
  O         6.7304658828        5.8001187182       12.1245216981
  H         7.2052221015        4.9387037018       12.1789904953
  H         6.5218782154        6.0416441573       13.0880135674
  K         0.0292799284        1.7231993611        5.4989349199
  O         4.4154909624        9.1934593110       12.9352505510
  H         4.2743776377        8.4295710550       12.2887937521
  H         5.3402190289        9.4076622371       12.7739713944
  O         1.0469396981        8.1257815620       15.5156668602
  H         0.4114103940        8.8111664144       15.1240570804
  H         1.1538849899        7.3828206057       14.9179831988
  O         2.6123866197        8.7533342007       20.1546765601
  H         1.8610488503        9.3272661714       19.9374754224
  H         2.4248725654        8.3328418875       20.9411277597
  O         5.8065138679        7.1171617140       14.5578777443
  H         5.5462888901        7.8941146970       14.0222630109
  H         4.9389687171        6.7410982087       14.8868844043
  O         4.0200862641        1.7725925607        7.6762958828
  H         4.8604111476        1.6891619376        8.1669410457
  H         3.6354466433        2.6566291553        7.9228011798
  O         4.5574849496        3.8565238604       10.8757436788
  H         4.0236437778        3.2748759319       11.4671011347
  H         5.3453688927        3.3295965523       10.6758556340
  O        -0.7424467815        9.5477302348        4.8592604535
  H         8.4981595285        9.4165774223        4.9835605746
  H        -0.5658140665        9.1284301120        3.9844456986
  O         1.3240559592        4.2109832294        5.1755213605
  H         2.3028384665        4.0450924167        5.2656791859
  H         1.2977679548        4.4300713303        4.2062150221
  O         3.6255244316        6.1013035173       18.0588032032
  H         4.2266502696        6.8669483805       17.9945553908
  H         2.6929204804        6.5433299123       18.1054641098
  K        -0.3115077943        2.5415552134       19.3870977520
  O         6.1933047161        1.3624735820       18.0505175151
  H         6.5010559859        2.3206711191       18.1095789147
  H         5.6507043731        1.1860674288       18.8775940943
     270
 i =     7000, time =     7000.000, E =     -4281.3539253205
 Cu        10.0125463751        0.3293789136       24.9836829861
 Cu         2.3502397374        2.7713669995       25.0272851911
 Cu        10.1350886543        0.3190016400        2.0441126428
 Cu         2.3517417361        2.6864236850        2.0596205298
 Cu         2.3364559048        0.1464514699       24.8423859996
 Cu        10.0899973126        2.7690649861       25.0614713355
 Cu         2.2213223177        0.1607157430        2.1903061488
 Cu        10.0877265880        2.7948425176        2.1620943283
 Cu         3.7478286367        1.3015146194       23.3168247522
 Cu         0.9288055233        4.1845863610       23.1556396553
 Cu         3.6822125801        1.4527494285        0.3320577950
 Cu         1.0509859324        4.1845048890        0.3005273487
 Cu         1.2557476443        1.5009628394       23.1734246888
 Ag         3.4925920227        3.9932936097       22.8010146012
 Cu         1.1199355822        1.6134688866        0.3928051237
 Cu         3.5589374418        4.0418608193        0.3752777277
 Cu         4.8788246449        0.0917918374       25.0667499066
 Cu         7.4960775215        2.8002937848       25.0343664594
 Cu         4.9856426217        0.1333515636        2.2150405656
 Cu         7.3942605007        2.8710628593        2.1006381771
 Cu         7.5196917973        0.2145123107       25.1321900250
 Cu         5.0513224680        2.7215539388       25.0276731630
 Cu         7.4066353520        0.3007080700        2.2976870978
 Cu         4.6983774788        2.5157378203        2.2622182793
 Cu         8.7529675994        1.5645405254       23.2493583839
 Cu         6.2603919363        4.0937722795       23.3955901704
 Cu         8.7147651111        1.5635663891        0.4077235545
 Cu         6.1070981560        4.0411031915        0.4744424046
 Cu         6.2485006181        1.4884929844       23.3330396513
 Cu         8.6665704382        4.1198634600       23.3260318932
 Cu         6.1904324319        1.5059386169        0.4602627840
 Cu         8.6601154554        4.1943362599        0.4306543741
 Cu        10.0551145718        5.3612988169       25.0936980729
 Cu         2.4532793114        7.8852647102       25.1265484065
 Cu         9.9639848779        5.2195156527        2.2064782150
 Cu         2.3933205854        7.7721605728        2.1573360144
 Cu         2.5016575429        5.3166409642       24.9253192922
 Cu        10.0938198157        7.9549233917       25.0697272474
 Cu         2.3525131567        5.2356324210        2.0575515851
 Cu        10.0574161029        7.8738248518        2.2217854056
 Cu         3.7054613904        6.5922357485       23.1181538277
 Cu         1.0918590991        9.0533471262       23.1695374933
 Cu         3.7139734412        6.5099413087        0.4742992910
 Cu         1.2239009540        9.1635262721        0.3043934826
 Cu         1.0991792667        6.7569328113       23.1933605540
 Cu         3.5582360101        8.9783649560       22.9991057528
 Cu         1.1043918219        6.6649878171        0.4398414494
 Cu         3.6737478506        9.0238990868        0.4488843700
 Cu         4.9575486718        5.2851540354       25.0957515421
 Cu         7.4839987144        8.0126345258       25.0676562525
 Ag         4.8881003638        5.2766050088        2.7277099017
 Cu         7.6041761335        8.0556346471        2.3381231522
 Cu         7.5354684177        5.4823877763       25.2068840805
 Cu         5.0634659255        7.8532367982       25.0885298271
 Cu         7.5321561930        5.4610528465        2.0922069742
 Cu         4.9804515272        7.8288403406        2.2955648780
 Cu         8.7583943219        6.5337570462       23.4263964161
 Cu         6.2457003817        9.0937395380       23.2759603219
 Cu         8.8820996006        6.6927449527        0.4394652660
 Cu         6.2268031998        9.0835271700        0.4766776890
 Cu         6.1610169721        6.4756270521       23.2595308912
 Cu         8.7726487115        9.1831668140       23.1736588423
 Cu         6.1695716893        6.5291720236        0.3958854326
 Cu         8.6813067011        9.2730256035        0.5324129362
  O         7.3839270688        9.1784283306        5.4176841169
  H         6.6679368629        9.1763074405        4.7448339770
  H         7.9071540251        8.3431733323        5.2442961540
  O         8.3192987180        6.5263184763        5.2190071372
  H         9.2766744204        6.6686642177        5.5008847790
  H         8.4827026796        6.3110908888        4.2806926974
  O         3.6199106199        9.8668380660       15.2516668942
  H         2.9910708792        9.0933642768       15.5898057168
  H         3.9722061936        9.5616331799       14.3764867845
  O         6.6196298285        2.4125762439        5.0710308369
  H         6.2359093258        1.9335905656        5.8241670596
  H         6.7916561591        1.6868032166        4.4284680870
  O         2.9618345565        0.8203992144        5.1083537625
  H         3.1425151624        1.2060951587        4.2256133465
  H         3.6425762640       10.3692931295        5.2896241826
  O         5.6512715937        2.3446926783       13.6262286377
  H         4.8649338292        2.0237152255       13.1097835178
  H         5.4623020595        2.9479108927       14.3971934453
  O         4.1265865330        6.8317254329       14.7217422747
  H         3.2433966203        6.5297666653       14.4925590059
  H         4.0912164923        6.9251694412       15.7754715316
  O         8.0174281609        9.5442544480       20.3691441082
  H         7.2340697958        8.9035049872       20.2639056851
  H         7.6186860395       10.4418792918       20.5205097115
  O         0.2895332414        4.2025216401       16.9392484141
  H         0.6978039667        5.0701372949       17.1584247107
  H         9.5175507111        4.1120360869       17.1672310386
  O         4.2904920772        7.0133315537       11.4870791339
  H         5.1041235975        6.6147766869       11.8028171637
  H         4.3511964948        7.3917530308       10.5956401067
  O        -0.0563476822        4.3793821273       14.2654040409
  H        -0.9203309142        4.0403199360       13.7965151223
  H        -0.1227382570        4.2521489580       15.2604957094
  O         0.4019085871        9.6906311320       19.7488524871
  H         0.3341320087        9.6537509034       18.8015968143
  H        -0.5346030345        9.3994708141       19.8656009394
  O         7.6440165076        6.4841360895       18.6990745576
  H         6.9074921473        6.7922457130       19.3164524462
  H         7.8440179614        7.2342752914       18.0098727594
  O         8.1588119592        3.7263703767        9.0348026493
  H         7.7626311680        4.6253157639        9.2333855940
  H         8.4149047037        3.7361390954        8.0898094160
  O         8.2145654393        8.1725694481       16.9261741344
  H         8.3134733178        9.1159866535       17.1253182954
  H         7.6676771858        8.1284777736       16.1127995783
  O         9.9342323308        3.1765481094       10.8624990216
  H         9.2530821717        3.2739483691       10.1608988793
  H         0.0490963260        2.3053388069       10.7322184287
  O         5.3098793416        9.2118383201       17.7697412709
  H         5.1657704594        9.4045339151       16.7389020285
  H         6.2715707289        9.1805701787       17.9231500330
  O         6.3431925110        5.9194255735        8.8702459932
  H         5.6878947901        5.4386147911        9.4631183374
  H         6.0983769042        5.7809264341        7.9304990548
  O         8.9937259423        3.9340236839        6.4935920111
  H         8.4733346071        3.3871608288        5.8519521239
  H         8.9690883066        4.8231340783        6.0469657838
  O         6.8250401081       -0.1019065909       11.3878094240
  H         7.4541456161        9.4069880014       11.0418563507
  H         7.2756449176        0.0902488847       12.2297565810
  O         4.4607615943        8.1232314507        9.1007192721
  H         5.3444366570        8.5262274042        8.7429139915
  H         3.9900876783        8.9657344061        9.0384205883
  O         4.6692911550        0.7402486230       20.2885301402
  H         4.9479266475        1.2968753524       21.0500142966
  H         4.1829075376       10.2063814265       20.6340167907
  O         1.2761097860        4.4189916876       20.7060075259
  H         2.1890650460        4.7529799763       20.4532063255
  H         0.7236165225        5.1834533194       20.5553035136
  O         3.4782862760        1.6682503287       12.2727108804
  H         3.5742557334        0.6576606354       12.2942575154
  H         2.7699466195        1.8339093506       12.9333974904
  O         0.7989608930        5.1932892944        9.4259955924
  H         0.4653554901        4.3591349682        9.9509153591
  H         1.5299616270        4.8394717208        8.8116265038
  O         5.4449259774        4.4836909949       15.4150361133
  H         5.0696089180        5.2688797479       14.9395131230
  H         4.7850615533        4.4236662002       16.0971367155
  O         7.7262321957        1.9766999254       20.4601542307
  H         8.2339015449        2.4096564159       21.2484365576
  H         6.9412485605        2.6137352624       20.3062738368
  O         3.5683503259        4.3788881714       19.3320755837
  H         3.8624088610        5.0255908681       18.5674291694
  H         3.1666280199        3.5759018568       18.9307227798
  O         8.7066182526        7.8385846634       10.8263839841
  H         9.4968039479        8.2436860415       11.2806995740
  H         8.2637170263        7.2328185381       11.4395607597
  O         3.8398808477        1.9621758849       16.3278398597
  H         3.8056865662        1.0369487840       15.8085705238
  H         4.8019866030        2.0098344619       16.6002320174
  O         0.9153427487        6.6785735551        5.4651269089
  H         0.8556634188        7.0002225783        4.5494848659
  H         1.2744111264        5.7417205313        5.2325168929
  O         0.8005037744        9.3569382899       12.2083884534
  H         1.0170069955       -0.2981642441       11.4330971919
  H         1.3089642700        8.4890922364       12.0584947674
  O         0.5602058173        9.2227204235        7.6009843722
  H         0.4278819935        9.2618601535        6.6306395449
  H         0.2788837785        8.2579679536        7.8027885114
  O         1.7465320489        6.9635196523       11.5438463731
  H         2.7118335477        6.8025461174       11.6695324920
  H         1.3348401596        6.5265616610       10.7369481203
  O         6.7370218873        8.8226840169        8.1400764367
  H         6.9330934929        8.8400425841        7.1626407854
  H         6.9578459404        7.9518197809        8.3840148014
  O         3.0213842754        3.7272146014        7.8287449209
  H         3.5870584828        3.9787713240        8.5985645573
  H         3.3195996799        4.4267092359        7.1692824405
  O         5.7946877982        7.5584262829       20.3780534184
  H         4.8542120755        7.8100441828       20.0904710102
  H         5.7361908883        7.4683048280       21.3680610922
  O        -0.0796768997        0.3105849031       14.6709099327
  H         0.6799966221        0.9066353482       14.7454584862
  H         0.1367545869       -0.1417263085       13.7692050001
  O         7.3575723999        0.2844178790       13.9277897171
  H         6.8155244996        1.0684048018       13.9923383171
  H         8.2145891735        0.4765304421       14.3517016154
  O         2.9675500031       10.2145902541        8.2153305224
  H         2.2672984013        9.7853556218        7.6438063847
  H         3.6607410579        0.5256525984        7.6877294034
  O         2.6696431000        1.9943842363       18.5726896550
  H         3.3281825296        1.5682906073       19.1659038252
  H         2.8737340504        1.7982130932       17.6196502830
  O         9.3871650101        6.9831266839        8.1825415067
  H         9.2523877463        7.1566949548        9.1662852329
  H         9.8395538974        6.1078371336        8.2943808437
  O         3.2123274388        6.6988178894        7.0973089279
  H         2.3308552108        7.1927110567        6.9939476203
  H         3.7619175689        7.1718219195        7.8372642642
  O         1.6262584206        1.0105625190       10.2626901286
  H         1.9998009955        0.7426905439        9.3175845118
  H         2.3699713619        1.2966858789       10.8061367553
  O         7.6652144068        4.2484353176       17.2817834950
  H         7.0776493427        4.5345355337       16.5811162174
  H         7.5690320995        5.0358779700       17.8896150859
  O         7.8960263699        3.6863182532       12.7436208111
  H         8.3981252068        3.2126441694       12.0317377424
  H         7.0458847772        3.1634058177       12.9707994878
  O         8.8022465764        0.5711091976       17.1584334109
  H         9.0748161101        0.6037212906       16.2073736462
  H         7.9759275817        1.0039875935       17.3632085842
  O         9.9039367837        6.4865950649       20.2693316640
  H         9.0165536945        6.3461554550       19.8281138359
  H         9.7895290002        7.0804541530       21.0250414690
  O         4.3659735303        4.0966111780        5.1269266373
  H         4.8977270897        3.3786987911        4.7627723734
  H         5.0942554396        4.6842162060        5.5995083672
  O         1.4105771601        6.3980237192       14.3375658070
  H         1.5709616189        6.7637450874       13.4493790611
  H         0.6985400387        5.6670945990       14.2859529455
  O         6.1178780085        2.0325597672        9.7294233841
  H         7.0071923399        2.4503141334        9.4740980267
  H         6.4317731068        1.2074091674       10.2002770673
  O         5.7939275943        5.9700592765        6.2345649102
  H         6.5950361698        6.3741532804        5.8478533011
  H         5.0305306169        6.5949059868        6.3026604018
  O         1.3132434016        6.7896128321       17.8620490567
  H         1.0140444347        7.5544543638       17.2367134753
  H         0.8952664944        6.8919471463       18.7207656621
  O         1.7566334544        2.4347514120       14.2953553459
  H         2.3361312592        2.6501643838       15.0764490124
  H         1.1190290420        3.2048167491       14.1085565991
  O         8.8631218421        0.9116938282        8.5240207090
  H         8.0530883810        0.4370536648        8.5826592404
  H        -0.6848291666        0.1799417161        8.5639304714
  O         4.6294894455        8.5963984683        5.4586518221
  H         4.4858387565        8.3648197722        4.5198364304
  H         3.9277667121        8.0401742049        5.8971279460
  O         5.8626030530        3.9413423966       20.1708844331
  H         5.8370084174        4.3482395500       21.1327754569
  H         4.8413299076        4.0210363759       20.0121211422
  O         7.0692963925        6.3522736966       12.6674758910
  H         7.5226945621        5.4272197203       12.6985541643
  H         7.2260998192        6.7009387669       13.5399501866
  K         0.8633610882        2.0989573367        6.5136960858
  O         4.5132988407        9.3375561033       12.8410118490
  H         4.3487679239        8.3924379304       12.6127069615
  H         5.2905415484        9.5932354660       12.3111284214
  O         1.3685486155        8.4806914355       16.0557841498
  H         0.8097257366        9.1703133079       15.6446671398
  H         1.2827040930        7.6730356872       15.4559350785
  O         2.7814109259        8.6027281721       20.3501312172
  H         1.9307611404        8.9402926840       19.8943012320
  H         2.5511213725        8.2928801466       21.2829669266
  O         6.7095242118        7.9899169264       14.6987240733
  H         6.8798275980        8.9185017940       14.3666366662
  H         5.7424987026        7.7687168383       14.5309861684
  O         4.8578047196        1.6308441247        7.2668817491
  H         5.4619941976        1.7852270705        8.0193533580
  H         4.1793218891        2.3686974476        7.1728751226
  O         4.5784595009        4.4669672881       10.0810941821
  H         4.1652916240        5.0533701047       10.7108544122
  H         5.0965622758        3.6772648395       10.4057590934
  O        -0.0013005083        9.9254338620        5.1927750777
  H         9.2646398068        9.7806672332        5.2037480532
  H         0.3322283627        9.4495874362        4.4131456005
  O         1.8261962691        4.1713089190        4.9039260083
  H         2.8166236261        4.1636428500        4.7965592151
  H         1.3707828322        4.0173729142        4.0143433682
  O         3.8216227458        6.7899984701       17.4433247199
  H         4.1309662135        7.6650372758       17.7846820882
  H         2.8634955984        6.7923148424       17.6477439795
  K         0.1570922637        2.2803229170       19.6947488399
  O         6.5189804298        1.9363313926       17.3231540863
  H         6.8552691747        2.8411319366       17.5019919462
  H         6.1887057849        1.7208480328       18.2056851224
     270
 i =     7500, time =     7500.000, E =     -4281.3858434757
 Cu        10.1251686758        0.2049514541       25.0907614994
 Cu         2.3388735726        2.6645959466       25.0361459797
 Cu        10.0542911255        0.2645396313        2.1758069841
 Cu         2.3025679225        2.7429212929        2.1015485205
 Cu         2.3281272164        0.1095674201       24.9665405280
 Cu        10.0339742223        2.8081888539       24.9643647405
 Cu         2.2862247200        0.0982131374        2.1455081198
 Cu         9.9650630692        2.5831638997        2.3125401233
 Cu         3.5748497487        1.3467431113       23.2764345865
 Cu         0.6814265682        3.9452288306       22.8912026860
 Cu         3.5797376347        1.3563969675        0.4311701279
 Cu         0.9954246718        3.9048678227        0.4492339237
 Cu         1.1086977633        1.4940258231       23.1162563136
 Ag         3.3106661653        4.0088671704       22.9017227991
 Cu         1.2285166166        1.4384356317        0.3250241324
 Cu         3.5028197148        4.0138653306        0.2776532188
 Cu         4.8149992827        0.1390280362       25.0106761662
 Cu         7.4556463683        2.7117008572       24.9368246123
 Cu         4.8925774987        0.1982326972        2.1584929670
 Cu         7.5266229026        2.8100178856        2.2965588015
 Cu         7.4530726499        0.2679288900       25.0739228583
 Cu         4.7650270267        2.8227490926       24.8196673879
 Cu         7.4408375948        0.1393982741        2.2908427242
 Cu         4.8752403066        2.6681460429        2.0856650606
 Cu         8.9040506827        1.3590754362       23.2197070975
 Cu         6.1069347693        3.8394881293       23.1186633877
 Cu         8.6620068129        1.5046730129        0.4261176574
 Cu         6.0597096207        3.8923110678        0.3049512119
 Cu         6.2730214818        1.3338130450       23.3042305305
 Cu         8.5991430038        4.2546951660       23.2363839545
 Cu         6.1248090829        1.4392815308        0.4640271028
 Cu         8.7786677338        3.8390454543        0.2886195329
 Cu         9.8886860134        5.1887251498       24.9357676104
 Cu         2.3936861501        7.7081757702       25.1338002830
 Cu        10.0454968948        5.0408608879        2.3037222640
 Cu         2.3923812589        7.6841497150        2.0698826112
 Cu         2.1772211442        5.2938753023       24.9593341058
 Cu        10.1170526421        7.8857161632       25.0210355586
 Cu         2.2458952545        5.2267470737        2.1129171653
 Cu        10.1625721174        7.7660182930        2.1503739268
 Cu         3.6766798841        6.6789498611       23.4529101676
 Cu         1.0983374622        9.1124084891       23.2332903612
 Cu         3.6119668445        6.5400216579        0.3672562881
 Cu         1.1384379746        9.1662634510        0.3994406333
 Cu         1.0687583807        6.6136116370       23.2867129839
 Cu         3.7601513901        9.0240959626       23.1665118268
 Cu         1.1236706276        6.3957650302        0.4213779409
 Cu         3.6821643336        9.1387979020        0.3918789858
 Cu         4.8370660994        5.2001490406       25.1629753533
 Cu         7.5280551895        7.7789434085       25.0952068082
 Ag         4.8165708394        5.2417308531        2.6014074825
 Cu         7.6007970048        7.8129062453        2.2510366531
 Cu         7.3361575138        5.2306366147       25.0386007441
 Cu         4.9315148525        7.8847092870       25.1813316328
 Cu         7.4560416894        5.2655840818        2.1053367162
 Cu         5.0205064481        7.8532149056        2.1086925794
 Cu         8.7069465923        6.7384923450       23.3312710464
 Cu         6.3388351235        9.0146091891       23.3191507945
 Cu         8.8090641609        6.6404471024        0.4400251664
 Cu         6.2875207529        9.1867901092        0.4478116806
 Cu         6.1203723733        6.5182356568       23.2586689334
 Cu         8.8242922934        9.0562907931       23.3081587104
 Cu         6.2785814145        6.5599882486        0.4526115396
 Cu         8.8737912841        9.1154060500        0.3893030055
  O         6.7886551746        9.1681247499        5.2104867144
  H         5.7554006605        9.3373499102        5.1417611355
  H         6.9505600809        9.0338635532        4.2919692094
  O         9.2872499275        5.9474540444        5.0574529057
  H         9.9938234978        6.6480585537        5.2875891090
  H         9.0370704479        6.1277787491        4.0784162757
  O         3.9158740392       10.1817531584       15.1534665882
  H         3.0211145680        9.7014904404       15.1203862366
  H         4.3280071388       10.0034409335       14.2832970621
  O         6.5746721678        2.5168580390        5.1659865659
  H         5.9673343632        1.9437334071        5.7086779409
  H         6.5032906945        2.2546217971        4.2132077048
  O         2.2163863958        1.0938641143        5.1794777013
  H         2.2429911963        1.6846045369        4.3787716777
  H         2.9849263734       10.6957846715        5.1097769201
  O         6.5154762298        2.9964649455       13.2600141784
  H         5.5953467626        2.8448309964       12.9251034778
  H         6.2868735008        3.4569558648       14.0972178998
  O         4.1945693882        6.5068002529       14.8968368132
  H         3.3681239044        6.3585696080       14.4243599318
  H         3.8439809388        6.5535824517       15.8098719562
  O         8.5153216754        9.8784899666       20.1233437055
  H         8.6507702949        9.7176808247       21.0682575036
  H         8.1660258855       10.7981109004       20.1304368386
  O        -0.2278428501        4.1652788093       17.1939156303
  H         0.1499990095        5.0165451620       17.5313716420
  H         8.9530196631        4.3585048327       17.1902832369
  O         4.9073521725        7.9418794513       11.1548775306
  H         5.7334803552        7.5775732996       11.4535014385
  H         4.8940661733        8.1521090081       10.1767128974
  O        -0.1734619814        4.5332298293       14.3155959708
  H        -0.9347463209        4.4495029984       13.6873155729
  H        -0.3776378379        4.4943740021       15.2778167019
  O         0.7359515363        9.4485439471       18.9360610830
  H         0.6009849216        9.4955737726       17.9707827442
  H        -0.1553156760        9.4675685346       19.3739175478
  O         6.8361075551        6.4780490675       19.0339795949
  H         6.0656732734        7.0089985247       19.3854704500
  H         7.3302706443        7.0316970314       18.3207368519
  O         8.3429549911        3.8609114941        8.6679878648
  H         8.1389254976        4.8537676872        8.9248352201
  H         8.5963339118        3.7452765570        7.7112156062
  O         8.4545700631        7.8880137707       17.3540442374
  H         8.4294690820        8.7820115459       17.7524904216
  H         8.0598968196        7.9048711842       16.4581611690
  O        10.2595730455        3.2467425491       10.4200489011
  H         9.4657237723        3.2383475293        9.8414378599
  H         0.3623315574        2.3474795965       10.3952905507
  O         4.3689798668        9.3343022394       17.7621990925
  H         4.4993953777        9.6034813223       16.8477091241
  H         5.1485089847        9.6364056662       18.2490555670
  O         7.3800882007        6.2700500638        8.8387342843
  H         6.6528646170        5.9451272274        9.4345884540
  H         7.0935969646        6.2596690928        7.9041278628
  O         8.7623250619        3.5315624337        6.2685034322
  H         8.0472687105        3.0272624722        5.7561051177
  H         8.9981130282        4.2966130354        5.6820470038
  O         7.6948306048        0.8702032039       11.5666430736
  H         8.2481106689       10.2849717230       11.2561233924
  H         8.2281100845        1.3140250267       12.2790949447
  O         4.7886199710        8.7501764414        8.7629404372
  H         5.7980568494        8.9794401306        8.4814444452
  H         4.2126948835        9.5031829422        8.6810298300
  O         5.2993058832        0.4775021991       20.5251240346
  H         5.6039991175        0.6024783007       21.4327492591
  H         5.2828657358        9.7134639177       20.5453289294
  O         0.6997823148        4.4184965875       20.6937472412
  H         1.5748087375        4.6440562061       20.3335665881
  H         0.1947582614        5.3134480053       20.7431414860
  O         4.1019637663        2.4759738436       12.2302579755
  H         4.3319076547        1.5251633605       12.3907860543
  H         3.4321335440        2.5991410869       12.9251359642
  O         1.6364061217        5.1468173470        9.4928782963
  H         1.1557480454        4.3961779104        9.8649944242
  H         2.4189604674        4.8324056702        8.9437829477
  O         5.5705025121        4.3081910628       15.4833453262
  H         4.9396618704        5.1514964800       15.3861406474
  H         5.0147877581        3.5591307922       15.8123712322
  O         7.8359767888        2.1237181952       20.5092131569
  H         8.1032949412        2.0947145499       21.4713546928
  H         7.1269644470        2.8922614167       20.4563159559
  O         3.2954469007        4.6345189504       19.7507240920
  H         3.3873070436        5.2660995596       19.0167038455
  H         3.4087072762        3.7328325363       19.4055913820
  O         8.7196415779        8.9091458954       10.4140363411
  H         9.6452847618        9.1469090935       10.5728157071
  H         8.5168589790        8.0994945977       10.9399738617
  O         4.0678756369        2.3454399917       16.4458004856
  H         3.9606051248        1.4936684489       15.9612115943
  H         4.5344107452        2.1132376176       17.2570514126
  O         1.3829043729        7.1361748847        5.3084057206
  H         1.6651089078        7.7221438891        4.5734629972
  H         1.6279472464        6.2152920352        4.9552352115
  O         0.9380830417        9.4177251185       11.6623164097
  H         1.3779198054       -0.1130340434       11.0607433289
  H         1.5159183510        8.5504587988       11.7665071339
  O         0.7064760888        9.2004854545        7.4505383946
  H         0.2757862424        9.6170349213        6.6985416624
  H         0.2812709333        8.3134042830        7.6522406658
  O         2.3097181079        7.0373492947       11.3320321740
  H         3.1979103249        7.3599521513       11.1711275399
  H         2.0317667056        6.5434588024       10.5154508087
  O         7.1484671783        9.3619262356        8.2418166540
  H         7.3497602267        9.1202064361        7.3506499040
  H         7.8283276936        8.9360509350        8.7826422397
  O         3.7869463201        4.3286322485        7.8714916901
  H         4.4206107272        4.5452746297        8.5832983401
  H         3.9612897043        4.8359581683        7.0028823173
  O         5.0946050421        7.9070521782       20.3991611525
  H         4.0887772985        7.8268355341       20.2902749562
  H         5.2617400907        7.5600508817       21.3252709312
  O         0.0379852006        0.6944949916       13.6914411670
  H         0.8184565890        1.2633706081       13.8319438480
  H         0.2505114850        0.1664991690       12.8915749647
  O         7.7068817167        0.4255479436       14.7746218904
  H         7.0745976338        1.1123140029       14.6171112832
  H         8.5582025497        0.6828331245       14.3095795784
  O         2.7295195749       10.5390292233        8.1791130937
  H         2.1618876518        9.8746367264        7.5890319287
  H         3.4460741552        0.7334458922        7.6257154353
  O         3.1857972734        1.9130353994       19.4381411047
  H         3.7929909526        1.5107571592       20.1068769601
  H         3.0958773241        1.1286988857       18.7986794243
  O        10.0324078230        6.9123941957        8.4438686055
  H         9.1671174618        6.7945657968        8.8673779298
  H        10.7445322262        6.3471465597        8.8665027022
  O         3.7291149748        7.3609983567        6.4929068927
  H         2.7285755166        7.5240621443        6.3314079605
  H         4.0810908015        7.8354407480        7.3399060968
  O         2.1571391822        1.3052955802       10.5408863537
  H         2.4777643284        0.9821562971        9.5949989825
  H         2.8136389536        1.9522783947       10.9797714885
  O         7.3681749683        4.3654895550       17.2768585699
  H         6.6235351631        4.3890824916       16.5982094170
  H         7.1043564637        5.1096433089       17.8889573452
  O         8.4163350178        4.5241836744       12.0971221864
  H         8.9784541253        4.0934349746       11.4118145282
  H         7.6185033844        3.9365905277       12.3303730520
  O         8.4588191485        0.2678095220       17.3591891516
  H         8.4402680806        0.2869029949       16.3603304771
  H         7.6574183204        0.7594305196       17.7048021187
  O         9.3554055503        6.8270874799       20.8349574597
  H         8.4487629169        7.0130148134       20.5028153673
  H         9.5995362242        7.6516659588       21.3650741572
  O         4.8290904037        4.8308583332        5.2187093394
  H         5.5642877887        4.1659371196        5.1580128537
  H         5.4096895223        5.6320805685        5.3831098975
  O         1.6739560586        6.7646204011       13.8508010846
  H         1.9041641315        6.8815515427       12.8761907128
  H         1.0282552211        6.0222856651       13.8837001734
  O         6.5595704301        2.2173365272        9.6266614548
  H         7.2674170118        2.8518999135        9.2507385880
  H         6.8752913019        1.6841047758       10.4169283102
  O         6.7560609489        6.4563672373        6.1592027479
  H         7.5742172346        6.0822371128        5.7633274461
  H         6.6883807049        7.4075178494        5.8349313777
  O         0.7454979249        6.6076947157       17.9640127514
  H        -0.0452088220        7.1232142481       17.6565728779
  H         0.9692569534        6.8966696798       18.8769368846
  O         2.1128537594        2.8491289259       14.1827998125
  H         2.4389872840        2.6568704777       15.0657957560
  H         1.3303964824        3.5008506986       14.2092521117
  O         9.6119834438        0.9861146984        8.8000351668
  H         8.6727407804        1.0827951481        8.5233113467
  H        -0.2851119073        0.1990000381        8.3489605761
  O         4.2072795373        9.4262433528        4.9198696323
  H         4.0054410824        9.0010778763        4.0107471947
  H         3.9715609023        8.6265042296        5.4852811256
  O         6.0122132455        4.4210735861       21.0135291960
  H         6.5062754953        5.0537139125       20.4960645107
  H         5.0577281903        4.6102053642       20.9182260527
  O         7.2278101642        6.9788429267       12.3395628656
  H         7.6358931892        6.0569114084       12.1661199678
  H         7.1894656661        7.0965863392       13.3046374105
  K         1.0001112046        2.7063036616        7.0316234124
  O         5.2021709153       10.3064099966       12.5751166682
  H         5.0077200401        9.4933213764       12.0088705655
  H         6.1348756249       10.4591098674       12.4056481939
  O         1.3963263842        9.1441373279       15.3514850106
  H         0.6976418001        9.7251853621       14.9277599019
  H         1.4334776531        8.2649966955       14.8664989481
  O         2.2827382178        7.8045243449       20.4205920386
  H         1.7068161539        8.4418110623       19.9127777425
  H         2.3396008949        8.0636185845       21.3353251418
  O         6.9136351183        7.8766816109       15.0734605055
  H         6.9273535618        8.8030558976       14.6819683157
  H         5.9361631761        7.6895010064       15.0153854823
  O         4.9680939563        1.7692927790        7.3664945896
  H         5.6324281881        1.6372650986        8.0705736608
  H         4.6574369986        2.7008460397        7.6023315684
  O         5.2414551147        4.6255836241       10.0345240438
  H         4.5588102589        4.7289726360       10.7690601445
  H         5.6748146852        3.6948808989       10.0086897665
  O        -0.2684261037       10.2571508289        5.1470319816
  H         9.4440837719        9.6335375430        4.6030259662
  H         0.5300456109       10.6020108494        4.7155184142
  O         1.8571824130        4.1465881394        5.0592793778
  H         2.5525123534        4.0390527832        4.4326798052
  H         1.0159332749        4.0327252178        4.5422830934
  O         3.3639150959        6.7798425479       17.3794980932
  H         3.6414105333        7.7021344087       17.6540365931
  H         2.3507527256        6.9131966312       17.5129660889
  K         0.1592826604        1.9925189522       19.2141299499
  O         6.1692246235        1.8134667879       18.1976042097
  H         6.3746155782        2.7718060045       18.0916638124
  H         6.0924228456        1.5790284815       19.1975442859
     270
 i =     8000, time =     8000.000, E =     -4281.3815599463
 Cu         9.9412521138        0.2107078826       25.1465631200
 Cu         2.3615440724        2.7801626699       24.9376551660
 Cu         9.9286780429        0.0513841312        2.2887003582
 Cu         2.2814071157        2.6835940689        2.2947120196
 Cu         2.4194028885        0.1602052517       25.0109644721
 Cu        10.0315392250        2.6698691189       24.9038809210
 Cu         2.3669578084        0.0601766144        2.2818760890
 Cu        10.0811026192        2.5068665366        2.2472566140
 Cu         3.7418200348        1.3034752213       23.1367688655
 Cu         0.8741031351        3.9800072425       23.0345142517
 Cu         3.5100762226        1.4192846800        0.4937515599
 Cu         1.1302829309        3.9604385566        0.3586200617
 Cu         1.1591712550        1.4757657207       23.1717168243
 Ag         3.5719892629        3.8882907906       22.7629216961
 Cu         0.9927115678        1.4063050878        0.4280800211
 Cu         3.6849438975        3.8310848777        0.4615928073
 Cu         4.8293626766        0.2476014191       25.1173241649
 Cu         7.4918965482        2.5248557388       25.0121553605
 Cu         4.8275523526        0.2374595861        2.1645686911
 Cu         7.4845838278        2.7346125622        2.3483675498
 Cu         7.5472250132        0.1147042681       25.1299812188
 Cu         4.8990149972        2.7078253615       25.0197890885
 Cu         7.2691345766        0.0396269323        2.0911286698
 Cu         4.9689007021        2.5143800564        2.3122315513
 Cu         8.8733239972        1.3414254109       23.1137289234
 Cu         6.2244974260        3.8104999993       23.2073770951
 Cu         8.8168755155        1.3126200619        0.5234246566
 Cu         6.1668292397        3.8118377297        0.4540381550
 Cu         6.1327580035        1.3931322722       23.2607282074
 Cu         8.6852171491        4.0406663254       23.2823036415
 Cu         6.1188532382        1.4393421454        0.4985412008
 Cu         8.8801167290        3.9001108426        0.2791578801
 Cu        10.0094931268        5.2100304218       25.0046567849
 Cu         2.4810114058        7.9083487805       25.0765833359
 Cu        10.2278222842        5.0073801867        2.1124037601
 Cu         2.4097943638        7.6705431758        2.0854927514
 Cu         2.5132205412        5.2614519993       25.0677035357
 Cu        10.1380893757        7.7824488141       25.2302855252
 Cu         2.2958002407        5.1970055513        2.3170594182
 Cu        10.0658319109        7.7415589966        2.0542849390
 Cu         3.6479768884        6.6109730862       23.3690101030
 Cu         1.1045644372        9.1771705895       23.3421693917
 Cu         3.7015775964        6.5342749586        0.3782441875
 Cu         1.1181276779        9.2371660835        0.4122065131
 Cu         1.0463062248        6.6074453478       23.4028147363
 Cu         3.8800572226        9.0714125304       23.2347980749
 Cu         1.0142829879        6.4311802398        0.3559216524
 Cu         3.5878085291        9.0967211121        0.3893519543
 Cu         4.9057468246        5.1486030947       25.0120624188
 Cu         7.5143378960        7.7008674453       25.0417840698
 Ag         5.0478792099        5.3891283052        2.3915526871
 Cu         7.5680499596        7.6353867741        2.4045393837
 Cu         7.3068396127        5.2224758493       25.0265411967
 Cu         4.9088401602        7.7747998554       25.0363873241
 Cu         7.7353583921        5.1286325262        2.2160981999
 Cu         4.9347420141        8.0690849717        2.0192979907
 Cu         8.7595230258        6.6198613467       23.2238383881
 Cu         6.3413544700        9.1514605593       23.3793491714
 Cu         8.7061365267        6.4100154103        0.4106236015
 Cu         6.1303485569        9.0011878284        0.2139430378
 Cu         6.2345210627        6.5411251977       23.2315647134
 Cu         8.7339978496        9.0481375449       23.4268039593
 Cu         6.2522795890        6.4651624898        0.4527761813
 Cu         8.6786607516        9.1570148575        0.4673876937
  O         6.8779589396        9.1471324627        5.3270325450
  H         5.9203579149        9.0948739129        5.1094161273
  H         7.2913598796        9.3214706514        4.4364240015
  O         8.7944954035        6.1223044363        5.1372601230
  H         9.4148599148        6.8625507820        5.3680404118
  H         8.6180378217        6.2305532364        4.1016988384
  O         4.3983500281       10.3661251113       15.1941034608
  H         3.4976970362        9.8646903231       15.3101904357
  H         4.7046257218       10.1693034587       14.2671951614
  O         6.4178726729        2.3997998543        5.2776039758
  H         5.9094069565        1.9635053148        6.0456684991
  H         6.3081673363        1.7671868435        4.5418570141
  O         3.1071330633        1.3359624074        5.0585514636
  H         3.0350329117        1.5135778251        4.0646829763
  H         3.5673763351       10.6623642878        5.1237940355
  O         6.7851426386        2.8336930269       12.7423300949
  H         5.8331068645        2.6534818278       12.4196481253
  H         6.4806073945        3.4081298610       13.5410577858
  O         4.3868291845        6.5601155041       15.2745092305
  H         3.5871537241        6.4212845249       14.6718688955
  H         3.9808621885        6.4803726150       16.2288946119
  O         7.3844062801        9.9552694533       20.1381158040
  H         7.2437061450        9.8817043757       21.1463548002
  H         6.9097584827       10.7638619582       19.8566058447
  O        -0.8403568371        4.4363020991       16.9774765555
  H        -0.3421590393        5.2843575857       17.3228467725
  H         8.4330276683        4.7016715548       17.1605903362
  O         5.0027538998        7.7496551234       11.2058168620
  H         5.8475682055        7.3965171806       11.5905058721
  H         5.1910841878        8.1426659995       10.2670834659
  O         0.0513682873        4.6467320622       14.4465642471
  H        -0.7040164236        4.6222247426       13.8194165450
  H        -0.3241040860        4.3859456892       15.4031418230
  O        -0.0303344951       10.3299615102       19.7640284874
  H         0.1794598479        9.8645745811       18.9578927130
  H        -1.1085564721       10.2903207906       19.8515918111
  O         6.6785247453        7.1295378359       18.1439964245
  H         6.1335405355        7.2365748797       19.0100379719
  H         7.5801868859        7.5061098497       18.2383046105
  O         8.3026171346        3.5539094132        8.4526806215
  H         8.1616707266        4.5661405897        8.4010042282
  H         8.3399830624        3.2249078763        7.5243768978
  O         8.6458853357        8.7019992936       17.0993456681
  H         8.5497034959        9.6692757707       17.2819585022
  H         8.1204339998        8.6792523202       16.2683039334
  O        10.2997278500        3.4910124083       10.4983854496
  H         9.6896624031        3.3293897669        9.7311367081
  H         0.6163909060        2.6700918603       10.5282516359
  O         4.8803718434        9.2911093316       17.7926233518
  H         4.8339838839        9.7516164971       16.9638623019
  H         5.7606766965        8.8623702906       17.8365407242
  O         7.2618245888        6.0270836712        8.7743980575
  H         6.5410100158        5.5305668202        9.2463751678
  H         6.8462584798        6.3340057853        7.9102217435
  O         8.8402581985        3.4066715378        5.5870580865
  H         7.8778206570        3.2381883315        5.2868779424
  H         8.9385745951        4.3751130826        5.4841569014
  O         7.4840430336        0.6056608742       11.2196887879
  H         7.9057045183        9.9918210060       10.7595936346
  H         7.9449999374        0.8156629745       12.0534342060
  O         5.0220877737        8.7778346818        8.7779939566
  H         5.8407117066        9.2940459891        8.5187141609
  H         4.2542403703        9.3815985617        8.6384888335
  O         4.1539324862        0.9540906818       19.9532703292
  H         4.3428331633        0.9040027164       20.9596738511
  H         4.4111690306       10.2886692983       19.5934089714
  O         0.7757680086        4.8186753131       20.6645658956
  H         1.6019406693        4.9746934863       20.2837033425
  H         0.2546728960        5.6057624250       20.6125030066
  O         4.0772315730        2.2346196758       12.2004507331
  H         4.2801840770        1.3341862777       12.5756230161
  H         3.4309789891        2.6867479088       12.7597313053
  O         1.7119963838        5.6377916345        9.5832496148
  H         1.2665001813        4.8969045679       10.1525895824
  H         2.1624415594        5.1534452375        8.8473982583
  O         5.5626554174        4.2129749294       15.0265566675
  H         5.0704759024        5.0783333780       14.9039882913
  H         4.8887241849        3.6036158136       15.3333692556
  O         7.6431246243        2.9855517459       20.3736795238
  H         7.9550901696        2.7406707147       21.3012863207
  H         6.9591294823        3.6487639946       20.5809177614
  O         3.1179934482        4.9083685046       19.4700836890
  H         3.2670167401        5.6879147529       18.8965421745
  H         2.9634597442        4.0538783608       18.9160334508
  O         8.7058608004        8.6555520336       10.4164570113
  H         9.5841726993        8.8247147265       10.7103611567
  H         8.2570756727        8.0851462692       11.1194612090
  O         3.8333016625        2.4300029869       16.2759393324
  H         4.1706093557        1.6100718956       15.8030808519
  H         4.4754994923        2.4550998979       17.0646946350
  O         1.1106247922        7.7217659756        4.8669145720
  H         1.2396534101        8.1858224618        4.0248542245
  H         1.6614314906        6.9178855582        4.8064006531
  O         0.5992643018        9.5750210642       11.9922252841
  H         1.0283235523        0.0635231811       11.4518640940
  H         1.1797680894        8.8325723746       11.7669973542
  O         1.2377445808        8.4557792731        7.2819413999
  H         1.0953969197        8.3949472429        6.2775109229
  H         0.5589078248        7.8495406105        7.7339188261
  O         2.2929654330        7.6009787469       11.4707329761
  H         3.2756244733        7.7564344874       11.5349326461
  H         2.1571579020        7.1833451177       10.5892038826
  O         7.4546188063        9.6541655578        8.0276010188
  H         7.3307934789        9.3848974878        7.0922811210
  H         8.0138170369        8.9712449038        8.5158109149
  O         3.2868690061        4.2224906171        7.7584168241
  H         3.8435786166        4.2770493131        8.5567434259
  H         3.5674714028        4.9934872625        7.1882730570
  O         5.2366278569        7.5145579745       20.3220987997
  H         4.2856951148        7.7362586577       20.2340802079
  H         5.5249150496        7.9930062484       21.1833239190
  O         0.5975439681        0.8537737115       14.3227274226
  H         1.1863530056        1.6542869881       14.0597928110
  H         0.8783197725        0.2593676445       13.6009726353
  O         7.9792153971        0.8988882526       14.6215751380
  H         7.7348049083        1.7841078738       14.1974194082
  H         8.9743050809        0.8813253713       14.6124499834
  O         2.9241727370       10.3681649993        8.2965345119
  H         2.3446706531        9.7575447925        7.7597900272
  H         3.5092636611        0.7885447650        7.8025671818
  O         2.4004275803        2.4534608045       18.5329085946
  H         2.8899736779        1.8374016698       19.0949769389
  H         2.6920266855        2.1130482859       17.6166873602
  O         9.8824107402        6.3727036189        7.9428764473
  H         9.0098851275        6.4514892597        8.2657385335
  H        10.4996346831        6.2126730354        8.7187816675
  O         3.6026465437        6.8763137079        7.0822905337
  H         2.8036184889        7.4366572913        7.3801963945
  H         4.3364245789        7.1597207072        7.6054045953
  O         1.8895791825        1.3563557425       10.4606627716
  H         2.1636851843        0.7721673528        9.6914485325
  H         2.7445468715        1.5800231568       10.9246136872
  O         6.9211711056        4.7080131079       17.3846675122
  H         6.4224063471        4.5351094580       16.5570565640
  H         6.6098757156        5.6479536915       17.6338420538
  O         8.5703641097        4.7583749146       12.1189052411
  H         9.3641960324        4.5675487172       11.4781388277
  H         7.9355245467        3.9845383503       12.0556230120
  O         7.9540151574        1.0758507009       17.3730758714
  H         7.9252417240        1.2701693973       16.3787799944
  H         7.1266453363        1.3687821693       17.7954368881
  O         9.3403602953        7.2433006066       20.2328059555
  H         8.6529826823        7.0623200300       20.8451176285
  H         9.9005985198        7.7828963742       20.8074153061
  O         4.6171308012        4.5189420142        4.9439145329
  H         5.1346544714        3.6626178100        5.0158233884
  H         5.2300562813        5.1421757914        5.4040502150
  O         1.9627264106        6.6738371612       14.0501030476
  H         1.7432076676        6.7546183993       13.0626883618
  H         1.4255722244        5.8431237763       14.4061181344
  O         6.0835674957        2.4494375530        9.5544949091
  H         6.9536321522        2.9216326690        9.2301840111
  H         6.4469665663        1.7075426104       10.1084068790
  O         6.3590345998        6.3540198766        6.1467658713
  H         7.2819944776        6.1775276687        5.8378292707
  H         6.3409885657        7.2850546682        5.7242522618
  O         0.4101698500        6.8034614740       17.8649670192
  H         0.0200917700        7.5068820363       17.3124869917
  H        -0.0699741245        6.9109722182       18.7680708994
  O         2.1938246050        3.1610047598       14.0325417558
  H         2.7728309835        3.1880116592       14.8342381288
  H         1.4589217152        3.8475029600       14.0979406661
  O        10.0152955483        0.7260227739        7.9758811755
  H         9.0692931572        0.6825844769        7.8553674940
  H         0.1344259850       -0.0498853285        7.5703282695
  O         4.2360226853        8.8621063682        5.4090359761
  H         3.9882905988        8.6464603858        4.5212980119
  H         4.2302428637        7.9987176730        5.8935098312
  O         5.4397605657        4.6329588069       20.8001545013
  H         5.6392401504        5.5427770462       21.0891977853
  H         4.6091784695        4.7124392876       20.2162449108
  O         7.4287171360        7.2666922869       12.2410706183
  H         7.9327989239        6.4110035829       12.2447840324
  H         7.4950328582        7.6438522285       13.2166985941
  K         1.2345015533        2.6389758927        6.5322084939
  O         5.1494015855       10.0006023558       12.5183631073
  H         4.9801534586        9.1190668415       12.0140017294
  H         5.9110425619       10.3699723381       12.0068009626
  O         2.0607829820        9.1190623381       15.8582676510
  H         1.4581873133        9.8674348465       15.5115871207
  H         1.9125949154        8.3395587701       15.3340942386
  O         2.4095720964        7.8692817309       20.3814351799
  H         1.9084837209        8.6710090172       20.5741699554
  H         2.6457693778        7.6600311581       21.3191259029
  O         7.0322997558        8.1429289031       14.8644510705
  H         6.8005135142        9.0708429807       14.7390905049
  H         6.1721756196        7.6385292860       14.9800261377
  O         4.6221824495        1.8031444289        7.3731236967
  H         5.1980134745        1.9338630636        8.1824772168
  H         4.2162466302        2.6781213912        7.3074271772
  O         5.0972509243        4.7911078703        9.8943669123
  H         4.4501633176        5.1159248838       10.5920736264
  H         5.3771158416        3.8521642427       10.2734055691
  O        -0.1591958092       10.8508338171        5.0130172374
  H         9.3324844115       11.4484480081        4.7005318628
  H         0.5192922566       10.8696613963        4.3002373197
  O         1.8378414467        5.0589131032        5.2645524676
  H         2.7671149610        4.7313541678        5.0426473615
  H         1.2195929594        4.6178143394        4.6427314154
  O         3.2551548179        6.9336589663       17.7932758363
  H         3.6276249611        7.8407186832       17.7582156271
  H         2.2853257160        7.0635499457       17.9001777429
  K        -0.0818141515        2.7278765915       19.1818308289
  O         5.7008860701        2.1930782166       18.2420917011
  H         6.3196956824        2.9446247119       18.5088859602
  H         5.1309052954        2.0163287137       19.0622682729
     270
 i =     8500, time =     8500.000, E =     -4281.3834277743
 Cu         9.9122792172        0.1578807881       25.0585759966
 Cu         2.5005039950        2.7797879590       24.9252391911
 Cu        10.0567692440        0.0614512600        2.2380930062
 Cu         2.4786826679        2.7164810051        2.1149495229
 Cu         2.3472426882        0.1349714025       24.8974720467
 Cu        10.0323555763        2.7164776975       25.1446878352
 Cu         2.3813218179        0.1262761256        2.1692112076
 Cu        10.2519869044        2.5231015850        2.2363949377
 Cu         3.7651156866        1.4309506253       23.3263571815
 Cu         1.1212356388        4.0106590750       22.8804635668
 Cu         3.7232522431        1.3396424368        0.2811796164
 Cu         1.1787159188        3.8526195787        0.4137313324
 Cu         1.0901988413        1.5468239961       23.3261187888
 Ag         3.7092660152        3.9510745631       22.9233380758
 Cu         1.1977798237        1.3780002388        0.4268578611
 Cu         3.7273421687        3.9911785008        0.3675625964
 Cu         5.0735089117        0.2039420328       25.1144494415
 Cu         7.5731650135        2.7155529221       25.0773525752
 Cu         4.9424802663        0.2598398413        2.4247297008
 Cu         7.5199354165        2.6917172713        2.2212021011
 Cu         7.5120125058        0.0396305632       24.9846879629
 Cu         5.1090370130        2.6669415862       25.0975186647
 Cu         7.4275463006        0.1280579365        2.1196595090
 Cu         4.9795491679        2.8098925197        2.2075492835
 Cu         8.9016896558        1.5695847116       23.2209720217
 Cu         6.4937366889        3.9703481923       23.2106000683
 Cu         8.7926547592        1.4736312978        0.5702645513
 Cu         6.4133921964        3.9943835688        0.4628008584
 Cu         6.2862313079        1.4587987222       23.0639423470
 Cu         8.7847392810        4.0003655127       23.2029462265
 Cu         6.3350719854        1.4848982354        0.4107853044
 Cu         9.0050919369        3.9126954037        0.5110086352
 Cu        10.1156721687        5.2485087653       25.0002984235
 Cu         2.4562503152        7.9805290630       24.9158678355
 Cu        10.2982600478        5.1833095778        2.1327042440
 Cu         2.2850082706        7.8403772634        2.0544063199
 Cu         2.3885984160        5.2564538412       25.0540030969
 Cu         9.9254369144        7.8077637495       25.0289521244
 Cu         2.4745171109        5.2246087979        2.1341634958
 Cu         9.8309580114        7.8627310821        2.1746099276
 Cu         3.7797856210        6.7058009983       23.2513904205
 Cu         0.9898058498        9.2276432135       23.3158781992
 Cu         3.5274469541        6.5416215863        0.2977814355
 Cu         0.9143841759        9.0357368053        0.3553479707
 Cu         1.2618235620        6.6341326938       23.2687265378
 Cu         3.8703564011        9.2240090316       23.2999886164
 Cu         0.9664162399        6.6037462039        0.3286404019
 Cu         3.7088811192        9.0902066531        0.4772439303
 Cu         4.8700753899        5.2056045647       24.8169338105
 Cu         7.4193818999        7.7301361269       25.0356355266
 Ag         5.0206036632        5.3786331758        2.4861434524
 Cu         7.4204093924        7.7184690709        2.3097848070
 Cu         7.5435596902        5.1937265038       25.0102999588
 Cu         4.9349983883        7.8234205343       25.0449492639
 Cu         7.7041329297        5.2147972448        2.0366361377
 Cu         4.7114118499        7.9060787554        2.1407030590
 Cu         8.7093587053        6.5141449079       23.1628383458
 Cu         6.1658037153        9.0893759420       23.2952333615
 Cu         8.7293867973        6.5819390144        0.4131007779
 Cu         6.2187454739        8.9946907951        0.3289531870
 Cu         6.3017865706        6.5120556832       23.3104047795
 Cu         8.7642832782        9.0720865104       23.2157453798
 Cu         6.0600035993        6.4513753923        0.3657816928
 Cu         8.6916070029        9.1482907467        0.4595064952
  O         6.1557548118        9.1115026132        5.3835190178
  H         5.2673605779        8.6355276266        4.9999467926
  H         6.7546152595        9.0524980177        4.5420401735
  O         8.7767925819        6.4314302051        5.1678192525
  H         9.8007424630        6.4344261048        5.1514247363
  H         8.6186956089        6.7034175044        4.2353756860
  O         3.3430121361       10.3502826618       14.7744426123
  H         2.4026928344        9.9370939104       14.9415455888
  H         3.7479693997       10.1922612617       13.8378633009
  O         6.5833527314        2.3183471022        5.3977859466
  H         5.9114674900        2.0607293037        6.0277043903
  H         6.5043232513        1.7549117203        4.5702129543
  O         2.6639650851        0.4547232093        4.6248985549
  H         3.3703500401        1.1412552645        4.4574752531
  H         3.2004097777        9.8713600669        4.8709173958
  O         6.3185599101        3.1669228905       13.4441805916
  H         5.7901616501        2.9573313711       12.5925540155
  H         5.7024637584        3.6858048866       14.1307344749
  O         4.3946863698        7.0507328608       15.1480380836
  H         3.5242380703        6.9853636638       14.6617298396
  H         4.1345786795        7.1467819558       16.1208570932
  O         8.1458398139        9.7261452065       20.5332390195
  H         7.6631765158        9.3640692123       21.3379115039
  H         8.0583224280       10.7426773315       20.6846730794
  O        -0.4452189618        4.3971863763       17.0888458696
  H        -0.1832435544        5.2869491141       17.4684332486
  H         8.8389688815        4.4687801237       17.1705200885
  O         4.4131674946        7.9826166719       11.1553577401
  H         5.2821960160        7.4963422564       11.4919635097
  H         4.8102698212        8.1781578923       10.2434173438
  O         0.4593544574        4.5889023280       14.6511732646
  H        -0.2526458436        4.6413658483       13.9260815180
  H        -0.1229219959        4.6758369921       15.4251375566
  O         0.3399563975       10.0813633008       19.9447820261
  H         0.0837127010        9.7268736438       19.0333818904
  H        -0.4733913969        9.8873592544       20.5041480997
  O         7.2555139537        6.6212113685       19.1646747739
  H         6.4790259083        7.0198526634       19.7067839659
  H         7.5124226369        7.2684644609       18.4686639301
  O         8.3776855638        3.8570688865        8.6272273158
  H         8.0069227023        4.7346565848        8.9298464456
  H         8.6016786197        3.9610181807        7.6411461450
  O         8.4171044033        8.1899745829       17.0720062290
  H         8.3831002293        9.2165461348       17.0597952346
  H         7.8945323602        7.9598118705       16.2529022214
  O         9.9939520103        3.1996724069       10.6773592864
  H         9.4740578637        3.0797339155        9.8329037121
  H         0.3830582612        2.4018496152       10.7922637669
  O         4.3401006653        9.7121328245       17.5026956934
  H         4.3490822075        9.9234743553       16.5582123808
  H         5.2607224492        9.7232390088       17.6989070590
  O         6.7152957333        6.1675108295        9.2014093338
  H         5.9500350005        5.7400144771        9.6403611172
  H         6.4478592977        6.1990489984        8.2663611522
  O         8.8759416443        3.8319141330        6.0281842020
  H         8.1002401051        3.2426540522        5.6511237789
  H         8.8178354545        4.6760011247        5.5274499609
  O         7.3917325489        0.8227619835       11.2445840774
  H         7.8434913321       10.2132976896       10.9321602124
  H         8.1280667690        1.4297844495       11.4265031084
  O         4.9518902332        9.3092410516        8.8267447569
  H         5.7638164082        9.7498959665        8.3834435164
  H         4.1523628693        9.9034923770        8.6720408660
  O         4.1879380117        1.2184330394       20.1505517360
  H         4.1281887891        1.6669340452       21.0052655742
  H         4.3283458354       10.4953179957       20.2064776124
  O         0.7829333380        4.6205149868       20.7562707196
  H         1.6823227993        4.9023800891       20.3668055943
  H         0.1676996968        5.3752408928       20.5965498236
  O         3.5973857805        2.5668993020       12.1083111550
  H         4.0334810027        1.6713348983       12.1247611019
  H         2.8345118819        2.4825816117       12.7291326639
  O         1.2922308216        5.4328554029        9.7206079883
  H         0.8147821245        4.5417343191       10.0561347395
  H         2.0291502459        5.1067651437        9.1513875538
  O         5.1684555149        4.2873201026       15.3890086077
  H         4.8153186009        5.2354445464       15.2663405612
  H         4.4599356069        3.6160244256       15.5439313038
  O         8.1928896909        2.2312034775       20.3990571690
  H         8.4658178635        2.3521359080       21.3571910030
  H         7.4474585746        2.8601673745       20.3209945594
  O         3.3057581245        5.2035448065       19.5971507598
  H         3.1458106181        6.0045438720       19.0459628857
  H         3.3073147805        4.4801749339       18.9526416365
  O         8.4286789008        8.7646418153       10.0592346207
  H         9.2309176785        8.9395281858       10.5865395603
  H         7.8413239473        8.2373126365       10.6874465359
  O         3.9902413928        2.0990412257       16.2365557217
  H         3.7099565738        1.2404297709       15.8140858611
  H         4.6660646512        1.7590027488       16.9368579712
  O         1.1756450948        6.4265019947        5.1995805546
  H         1.3203971312        6.6840412392        4.2678843062
  H         1.6138274361        5.5390309522        5.2807601220
  O         0.5845403990        9.3442685134       11.4771287580
  H         1.1749388696       -0.1307537644       11.1069128058
  H         1.1434966344        8.5104393570       11.4930538216
  O         0.8452089314        8.4439658066        7.5323897122
  H         0.7462076615        8.5580259112        6.5630937492
  H         0.0672575972        7.7725919403        7.7915872969
  O         2.0786831887        6.9899753482       11.6886679341
  H         2.9485349422        7.3220400489       11.4083538150
  H         1.8593798687        6.3145048130       10.9730034405
  O         7.4214401311        9.8159785353        7.7704026387
  H         7.1426221563        9.4339756836        6.8567727626
  H         7.5746227812        9.0695508794        8.3295788289
  O         3.3528315459        4.3070781674        7.9461182316
  H         4.0035757313        4.2652936755        8.7222223477
  H         3.5012471218        5.1640833733        7.5143595827
  O         5.2194191883        7.8969763231       20.3580960241
  H         4.2242092500        7.8266035785       20.1774979768
  H         5.3167460436        8.0628095644       21.3256788989
  O        -0.5397146623        0.4875067284       13.5730256427
  H         0.2052632878        1.1232421826       13.7348975050
  H        -0.0817393009       -0.0885414158       12.9349237948
  O         7.2167516409        0.8971746293       14.8100484706
  H         6.7042725855        1.6126557839       14.3658801902
  H         8.0538685842        0.8641841129       14.2374831745
  O         2.7323402806       10.6562373379        8.2972593834
  H         2.3724202850        9.8648800254        7.7919962952
  H         3.3875295879        1.0569965890        7.6771755674
  O         2.5669740017        2.9422249523       18.1689157814
  H         2.8246948871        2.2331400882       18.8195614609
  H         3.2227897628        2.7346668703       17.3057805145
  O         9.3963091721        6.6760760147        8.4485411039
  H         8.9314212291        7.1682885688        9.2143978643
  H        10.1806006511        6.2245272014        8.9007640152
  O         3.2295890923        7.1207222769        7.4980702655
  H         2.3234499220        7.3136156279        7.8623988395
  H         3.7856836117        7.7401040342        8.0325186351
  O         1.7138029497        1.3436203945       10.6700909601
  H         1.8946635662        1.1762687665        9.6897209535
  H         2.5511931073        1.7590383972       11.0962942078
  O         7.1428694787        4.3064953603       17.5039933459
  H         6.6390502316        4.4720229371       16.6926800076
  H         6.9118937800        5.1023847741       18.0718704060
  O         8.3275914465        4.8831042163       12.4990967874
  H         8.8879631186        4.4220872419       11.8637909191
  H         7.6405723273        4.2375071193       12.8770366994
  O         8.4285200719        0.6040404312       17.2318767135
  H         8.0281262663        0.9489703282       16.3521609249
  H         7.7423417655        0.8851670851       17.9385810818
  O         9.7389201826        6.8865060875       20.2670071907
  H         8.7606621692        6.9332533938       20.0320249650
  H        10.0079776448        7.4041820937       21.0626370896
  O         5.3111398596        4.6890129993        5.0247938712
  H         5.8940487181        3.8951757291        5.1033281707
  H         5.6805136733        5.3467994726        5.6375328889
  O         1.9386540757        6.7688384729       14.2937008968
  H         2.0887859763        6.8159758792       13.3299462293
  H         1.3914879552        5.9459863108       14.4290752639
  O         6.3091290318        2.2219726534        9.1111351909
  H         7.1246013949        2.7992010399        8.8202400845
  H         6.5924008217        1.6203565347        9.8726890069
  O         6.4212971010        6.5931964696        6.6122860462
  H         7.3928390500        6.5143642917        6.3331149407
  H         6.1277980222        7.5113069484        6.3233388729
  O         0.6872157212        6.7052271126       17.8202574416
  H         0.1057146454        7.2983365148       17.2707970591
  H         0.3775081479        6.9484927896       18.7472504738
  O         1.6266837293        2.2078832401       13.9870015524
  H         2.3163119736        1.9276179745       14.6391410263
  H         1.2427447512        3.0738292072       14.3887688727
  O         9.9003686169        0.9155996016        7.9850541333
  H         8.9925069640        0.7332849839        7.7870059908
  H        -0.0573260880       -0.0017707174        8.0577937224
  O         3.7678804958        8.0351516329        5.0233018799
  H         3.4136475614        7.3896064662        4.3474902845
  H         3.4495818493        7.7695646380        5.9070690863
  O         5.8837478654        4.2648199465       20.4993609730
  H         6.2364739626        5.1438580714       20.6750472461
  H         4.9716501556        4.5823190633       20.4301030262
  O         6.9604377038        7.3864206354       12.0202916672
  H         7.3596508657        6.4784392621       12.0615785481
  H         6.7674899828        7.6041070355       13.0120385919
  K         0.8803604504        1.8428022739        5.8871685795
  O         4.8484724968       10.1708297707       12.5092685662
  H         4.7714619649        9.3911347725       11.7839166455
  H         5.7896729659       10.4282041717       12.5689398773
  O         1.1455804366        9.0911185456       15.3437360422
  H         0.3457650418        9.3285775568       14.8028078932
  H         1.5151384452        8.2865498449       14.9117226731
  O         2.5171402663        8.3629788261       20.5392525019
  H         1.8478057443        9.0156864847       20.4680565504
  H         2.5939025474        8.0672677169       21.4966518407
  O         6.7857252759        8.1365408281       14.6703862655
  H         6.7975565193        9.1315466575       14.7112228197
  H         5.8036554061        7.9543451092       14.8460413384
  O         4.5265490627        2.0400163379        7.2287537507
  H         5.2876483760        2.0692058555        7.9137646053
  H         4.0785888504        2.9221400274        7.3998507835
  O         4.9358222663        4.1580272455       10.1948787804
  H         4.2746481670        3.7521674803       10.7836602879
  H         5.4948517375        3.3563770205        9.8639661067
  O         0.1562319863        9.5124950694        5.0207601001
  H         9.4379913265        9.2501065015        4.8708299320
  H         0.5094939148        9.3787563431        4.0948269587
  O         2.4749680842        3.8834670654        5.2358311085
  H         3.4931300152        3.9812464428        5.1594541683
  H         2.0772229412        3.8094697468        4.3357447603
  O         3.4484610960        7.1737369977       17.6023969860
  H         3.7229238072        8.1323505765       17.8247890407
  H         2.4028233318        7.2390811549       17.5284713389
  K         0.1725253911        2.6413964502       19.2619369182
  O         5.7613665269        1.8713583881       18.0410543978
  H         6.2147845121        2.7684939576       18.0210961661
  H         5.2488281967        1.8867601731       18.9190167854
     270
 i =     9000, time =     9000.000, E =     -4281.3944929506
 Cu        10.2023076922        0.1239671878       24.9902022849
 Cu         2.3800496095        2.8271118169       24.8392944427
 Cu        10.0675751540        0.2305023256        2.0162259083
 Cu         2.7774846141        2.8077571029        2.1289818006
 Cu         2.4857819942        0.3226926403       24.7418288269
 Cu        10.1960210424        2.9153816673       24.9240670848
 Cu         2.5466588989        0.2619307987        2.0982307897
 Cu        10.2892011311        2.8598919231        2.0474658472
 Cu         3.8492475059        1.6294871944       23.1920941436
 Cu         1.1030344357        4.0841862991       23.1590605880
 Cu         3.8107284877        1.5455615232        0.3608849472
 Cu         1.2913905269        3.9441244397        0.2356622738
 Cu         1.1543446235        1.5132576657       23.1020791529
 Ag         3.8526461928        4.0439653559       22.9456154561
 Cu         1.2592377470        1.4199727562        0.3149590690
 Cu         3.7284719536        4.1013247140        0.1243267776
 Cu         5.1646985356        0.2329199568       24.9968766247
 Cu         7.6657212804        2.7193181589       24.9299104844
 Cu         5.0169615524        0.2507111952        2.1817258093
 Cu         7.7389770384        2.5871806155        2.1999466532
 Cu         7.6368509233        0.3030951688       24.9918275980
 Cu         5.0372968780        2.8902953732       24.9853943532
 Cu         7.5029521400        0.2294329362        2.2060870748
 Cu         5.2043408445        2.7688675240        2.2322888127
 Cu         8.9825754205        1.4844919149       23.1970849325
 Cu         6.3566650640        4.0222153350       23.2805642696
 Cu         9.0824911591        1.5124746321        0.2995342395
 Cu         6.4159595361        4.2350639994        0.3719335811
 Cu         6.3521255708        1.5568643412       23.1519539515
 Cu         8.8856274542        4.1774619566       22.9869383769
 Cu         6.2793465385        1.6406005379        0.3176977803
 Cu         8.8900762945        3.9312176285        0.3792113749
 Cu        10.0819746279        5.4111851182       25.0409932262
 Cu         2.3378883345        7.9962669488       24.8769008879
 Cu        10.2055154783        5.3335932083        2.0527612149
 Cu         2.3755438646        8.0395887622        2.0458505695
 Cu         2.4213324421        5.3736980504       24.9173493590
 Cu        10.0184773372        7.9119378616       25.0566257559
 Cu         2.4644421573        5.3670033691        1.9614058026
 Cu         9.8537307040        7.8293343421        2.3868743701
 Cu         3.7176268695        6.7302606399       23.0630672369
 Cu         1.1229382492        9.2416405798       23.1539120982
 Cu         3.7141322323        6.6851473053        0.3354784205
 Cu         1.0892161781        9.0952831012        0.4326230711
 Cu         1.1646466287        6.6965944681       23.2632778194
 Cu         3.8273004889        9.3555763210       23.0481863861
 Cu         1.0552294363        6.5869679544        0.2625706915
 Cu         3.5678985740        9.2340128076        0.1898196894
 Cu         5.0668179267        5.4326492851       25.0188847322
 Cu         7.4899916594        7.9181782090       25.1062425935
 Ag         4.9659579673        5.3932390282        2.4774661829
 Cu         7.3252494194        7.8384526192        2.2842019225
 Cu         7.5616710375        5.3381645426       24.9286863859
 Cu         4.9353961461        7.9026468734       24.9543696908
 Cu         7.8221843441        5.4587186664        2.2330545624
 Cu         4.7438441330        7.9276380088        2.0903052534
 Cu         8.7785619994        6.7515741173       23.1638923585
 Cu         6.3557146723        9.1764208870       23.0689653780
 Cu         8.7724233751        6.5649582278        0.3582284133
 Cu         6.2308413355        9.2680028139        0.3673154667
 Cu         6.2426415487        6.6653019308       23.3054293290
 Cu         8.8255916727        9.1818634580       23.1720758998
 Cu         6.3583217137        6.5972085648        0.4333117424
 Cu         8.7192119644        9.1066769543        0.5414196501
  O         5.7333010585        8.9397157280        5.5816231165
  H         4.7554930835        8.9596978252        5.5749225086
  H         5.9754111335        8.8520205944        4.6258039449
  O         8.1033560433        6.4290608947        5.4499781902
  H         9.0864950423        6.5397731356        5.3941531731
  H         7.7010458086        6.6107052927        4.5304356623
  O         3.7722193297        9.7098501284       15.1107909442
  H         2.8760406960        9.1662073330       15.2111562626
  H         4.0889262065        9.4957297827       14.1933413989
  O         5.6565220422        2.2021645014        5.0275389335
  H         5.0925439049        1.8932812547        5.8075216248
  H         5.6932812033        1.4006224990        4.4522078849
  O         2.0425268859        1.1892058536        5.1535623510
  H         1.8497374303        1.2636469249        4.2059162583
  H         2.3769043755       10.5364672356        5.2699953876
  O         6.2887202166        2.6411440474       13.4530779308
  H         5.3919095036        2.3618322458       13.0835997122
  H         5.9604358068        3.3464384915       14.0949174659
  O         3.9262570792        6.3759498022       15.0272214705
  H         3.1573092750        6.2729050828       14.4977028055
  H         3.4811172724        6.5024819714       15.9102154355
  O         9.1495787608       10.1603615724       20.3683857290
  H         9.8494106207        9.9090077342       21.0535531285
  H         8.4178000241       10.4119863688       21.0215579870
  O        -0.6633988823        4.0068678280       16.8394863348
  H        -0.2628579971        4.7896220446       17.2858760558
  H         8.5747666470        3.9646458965       16.9347385179
  O         4.3232643544        7.1055284138       11.2403149717
  H         5.1569047480        6.5156597551       11.3559432427
  H         4.4329380618        7.5904973226       10.3736583188
  O         0.0875709977        4.1009803519       14.2853064617
  H        -0.6273254392        3.8635093187       13.6575979914
  H        -0.1713461156        3.9835311141       15.2174636385
  O         0.9742375263        9.9092733495       18.3357175402
  H         0.9688848699        9.2732571086       17.5745029092
  H         0.0709140027        9.7749920971       18.8520912794
  O         7.3690251605        6.6602255322       19.0472071231
  H         6.5844214557        7.1502321920       19.3926275982
  H         7.7096885021        7.0333339901       18.2162689859
  O         8.0322693432        3.2747703867        8.2521354529
  H         7.7114489661        4.1122054867        8.7186892792
  H         7.9218869740        3.4568560498        7.2434019170
  O         8.4402196668        7.9577305803       16.7969819132
  H         8.3375507690        8.9208204927       16.9866019251
  H         7.8862829458        7.8636092695       15.9182588164
  O         9.7766619640        3.0095636757       10.5652661804
  H         9.2138234313        2.8636989415        9.7726969868
  H         0.0612444573        2.1650032159       10.7467186494
  O         5.1332120722        8.8004623082       17.1744768063
  H         4.7822377541        9.1589373081       16.3113222701
  H         6.0884890111        9.0086779503       17.3121099077
  O         6.6420665503        5.3303320349        9.3108675424
  H         5.9093164373        4.8796692168        9.7772965442
  H         6.2611576012        5.5553939335        8.4224392143
  O         8.0263506192        3.2661159330        5.4616132268
  H         7.1498202623        2.8515238623        5.2778494671
  H         7.9506041522        4.1538039821        5.0604682845
  O         6.6851720303        0.0460339368       11.3355715251
  H         7.2909928955        9.7229922836       10.7594388145
  H         7.1618595138        0.0119434913       12.1731908873
  O         4.5971078841        8.3227995403        8.9288725724
  H         5.5100923549        8.3627872789        8.5772266758
  H         4.0840721883        9.1568173203        8.8619261875
  O         5.5031589872        0.7087427335       20.1039515423
  H         5.6992122614        0.9494762233       21.0280232845
  H         5.4312508166        9.9063007953       20.2665808053
  O         0.8868120291        4.2471313389       20.9375993122
  H         1.7897447982        4.6073975263       20.7670903142
  H         0.3630647611        5.0370604391       20.6659676037
  O         3.8590529962        1.6295380646       12.5530036428
  H         3.8813308476        0.6080491357       12.5378429475
  H         3.2199903585        1.9566183151       13.2725771999
  O         0.8215967595        5.1621309052        9.9315852660
  H         0.3746401689        4.2358510744       10.2282441541
  H         1.4931481174        4.9008724090        9.2752368084
  O         5.5055109851        4.3542562486       15.5009350214
  H         4.8593330602        5.0632228770       15.2682624018
  H         4.9614030575        3.5695092062       15.6674407936
  O         8.1819239903        3.4592134449       20.7499094778
  H         7.9460345987        2.6757110999       21.3185592561
  H         7.3412829027        3.9176772347       20.6078660455
  O         3.1942317843        4.5163691987       19.5969931045
  H         3.1754727933        5.2812312075       18.9171860164
  H         2.9168203208        3.6736332389       19.0669430970
  O         8.2974106295        8.0955697425       10.7736512088
  H         9.0981173447        8.5402029654       11.2275727861
  H         7.7754590419        7.4178276112       11.3329719472
  O         4.0266991225        1.8018971765       16.2944067905
  H         3.9394593727        0.9898795033       15.7222131237
  H         4.9257341342        1.7690804416       16.8103759635
  O         0.5132508052        6.8990298934        5.2807480173
  H         0.6524411582        7.3696828852        4.4241551527
  H         0.9041814593        5.9924630083        5.1635539844
  O         0.2928090450        9.0875550001       11.8175868371
  H         0.7615536152       -0.4964510984       11.2195640355
  H         0.8807614582        8.3203776573       11.9147987131
  O         0.8176494841        8.5076579215        7.8080086796
  H         0.4570127949        8.6833673645        6.8918833842
  H         0.1116796207        7.7633253837        8.2040741896
  O         1.8125915046        6.6452469367       11.7157698168
  H         2.7580216758        6.7487758010       11.5838563682
  H         1.4298927704        5.9497364010       10.9795883377
  O         7.0518185795        8.8799117827        7.9337219281
  H         6.7655077788        8.9942800372        6.9920751491
  H         7.5378534020        8.0624377769        8.0387875831
  O         2.7141230763        4.2655980431        8.1810345029
  H         3.3993460753        4.2014753065        8.8605493242
  H         2.8708086395        5.1151063900        7.7237766451
  O         5.4560086830        8.2054310603       20.1894221677
  H         4.4236629308        8.2650697504       20.1282919419
  H         5.5578378456        7.8071190801       21.1381151846
  O         0.1498498169        0.1979528486       14.2752469608
  H         0.7407662664        0.9405403237       14.1894788276
  H         0.2240457918       -0.2664682779       13.3942853184
  O         7.5609298006        0.0653510968       13.9522534257
  H         7.0748477999        0.9195691835       14.1247189395
  H         8.5750331223        0.1913515205       14.1863229962
  O         2.6894819782       10.2478594996        8.7191761329
  H         2.1025857957        9.5918388445        8.2009307131
  H         2.9963272170        0.6581840816        8.0720705316
  O         2.8514724174        2.0407126445       18.8000273913
  H         3.4901531975        1.6973032687       19.4387564236
  H         3.1294859265        1.5945010524       17.8995969366
  O         9.1691012488        7.0200083919        8.6999988008
  H         8.9308323669        7.3620067918        9.6243029961
  H         9.5075502086        6.1361617232        8.9020379083
  O         2.9545113066        6.8527361115        7.1690676811
  H         2.0104683611        7.1244398577        7.0947348712
  H         3.4865896341        7.4193547301        7.8069186927
  O         1.6039228996        1.0074301348       11.0627869221
  H         1.7882919398        0.7634149452       10.1407436657
  H         2.4438680967        1.4221159191       11.4783251767
  O         6.9856698049        4.3120566750       17.7217351925
  H         6.4969293978        4.6305111090       16.9649922608
  H         6.9802723778        4.9687146175       18.3968904826
  O         8.3192265302        3.8107540030       12.5580835903
  H         8.8699862022        3.4228747413       11.8426936820
  H         7.5676046159        3.2127585680       12.8950501263
  O         8.4242127012        0.4499041587       17.1629247661
  H         8.9339292243        0.7930359896       16.4790181782
  H         7.6143606904        0.9673484769       17.3511839706
  O         9.8113701821        6.5628387736       20.2374337119
  H         8.8273960843        6.3727415452       20.1733909952
  H        10.0210298070        7.2575384279       20.9440458420
  O         4.1672294746        4.5937197176        5.1596747631
  H         4.6301237648        3.7209899307        5.0403976885
  H         4.6584574190        5.1064322474        5.8478203034
  O         1.3499866689        6.4113963969       14.2490950076
  H         1.5136368845        6.4159207582       13.2373565361
  H         0.7375197707        5.6386539796       14.3797792162
  O         6.0124636719        1.8174178217        9.3082360702
  H         6.8478682287        2.1321136575        8.8320374933
  H         6.2614662141        1.3247072198       10.1448440409
  O         5.7958000264        6.1938906595        6.8927218178
  H         6.7907272789        6.3705609185        6.5963891987
  H         5.4848227375        7.0607207335        6.5688489289
  O         0.4123779517        6.4572606660       17.7257983053
  H        -0.2140949046        7.1044749981       17.2997176493
  H         0.1820917977        6.6126801842       18.7361371674
  O         2.0901219365        2.5037988188       14.3742684310
  H         2.5024802085        2.5460495931       15.2669920439
  H         1.2868460722        3.0854690380       14.3158913205
  O         9.4589485539        0.3330193402        8.7557252065
  H         8.5666375879       -0.1650240764        8.5250351537
  H        -0.1191692295       -0.3693899659        8.5683739141
  O         3.1007640906        8.8159645599        5.1297212265
  H         3.2386123541        8.6054110011        4.1406665255
  H         2.9792301390        7.9857089043        5.6310666210
  O         5.6616093597        4.4327270979       20.6438621364
  H         5.7950889528        5.3211976560       21.0755148039
  H         4.9167340446        4.4848698617       19.9962029004
  O         6.9381035568        6.2163684440       12.1436785276
  H         7.3931361294        5.2767969673       12.1438614164
  H         6.9106689731        6.5443568746       13.0753781665
  K        -0.1075104999        1.7620472484        6.6483008816
  O         4.6438401634        9.2457789732       12.6540480207
  H         4.3437417867        8.3521296450       12.2449373092
  H         5.3517406797        9.5920929985       12.0763308736
  O         1.5638750963        8.6648946167       15.6019032320
  H         0.9506010991        9.3316026451       15.2448732846
  H         1.5502529663        7.8090126426       15.0756763033
  O         2.8752711774        8.4635821777       20.0871388644
  H         2.3230504860        9.0094886312       19.4593561425
  H         2.1974617923        8.1615273518       20.7498378253
  O         6.7590923120        7.7015953007       14.6343208180
  H         6.6685268591        8.6026114713       14.2763350129
  H         5.8938351123        7.5259574608       15.0715950591
  O         4.1076540624        1.8181330436        7.3784044918
  H         4.7845554685        1.8719678885        8.1418524500
  H         3.7484523832        2.7304515583        7.3756634738
  O         4.7548744829        3.7331226769       10.5334062271
  H         4.0216665054        3.4773616548       11.0965453090
  H         5.1909002490        2.9218652621       10.1364655868
  O        -0.4128393408        9.5432300402        5.2320835666
  H         9.2033358496        8.9077059865        4.7634055583
  H         0.1998887153        9.7348040187        4.4530124042
  O         1.5503153288        4.5405314024        4.9299999151
  H         2.5712652300        4.5209869462        4.7586072566
  H         1.2336998901        4.2965232164        4.0591646463
  O         3.1526360913        6.5299895933       17.6512378511
  H         3.8254280881        7.1577308644       17.8417842286
  H         2.2637515495        6.9530443040       17.6567087545
  K         0.2110016595        2.4335597268       19.0431591884
  O         6.2281192843        1.7094759745       17.6994629383
  H         6.5435626778        2.6847028651       17.7673115540
  H         6.0055536722        1.3534972297       18.6883023294
     270
 i =     9500, time =     9500.000, E =     -4281.3679205323
 Cu        10.2054618574        0.3534522684       24.9967088020
 Cu         2.2432334849        2.8258746900       24.7525915003
 Cu        10.0399442797        0.3255862904        1.8530272728
 Cu         2.7055773818        2.8097285261        1.9431467139
 Cu         2.5021119624        0.3646935087       24.9859541783
 Cu        10.0736535379        2.8359723544       24.9608682946
 Cu         2.4213704650        0.1917884926        2.0849496701
 Cu        10.1795260226        2.8754736051        2.1257954422
 Cu         3.6484335952        1.4008520232       23.0334289232
 Cu         0.9488321785        4.0744365155       22.9876267401
 Cu         3.6952623371        1.4694506231        0.1989758631
 Cu         1.2052376318        4.1233173997        0.3549490825
 Cu         1.1250472636        1.5117457445       23.0595082197
 Ag         3.8507914058        4.1035410575       22.9535791376
 Cu         1.2755207327        1.5499211879        0.3521755055
 Cu         3.7986202579        4.0888198139        0.2344228839
 Cu         5.1064435582        0.1122721058       24.9007353870
 Cu         7.5372229860        2.8743588215       24.9091623490
 Cu         5.0186291393        0.2766505516        2.1469772985
 Cu         7.6009961171        2.8451397677        2.0385108903
 Cu         7.6957273757        0.2159034634       24.9682777119
 Cu         4.9604116421        2.7447614001       25.1075172160
 Cu         7.6766952029        0.4078284614        2.0447269631
 Cu         5.0614433119        2.7105951546        2.1022248849
 Cu         8.8027218952        1.4114999305       23.3705522382
 Cu         6.3329472739        4.1544230590       23.2999259842
 Cu         8.7809765721        1.5809671752        0.2887036286
 Cu         6.3641118088        4.1518714123        0.2854238502
 Cu         6.1405172661        1.6969697961       23.1357265697
 Cu         8.7703040768        4.1395701082       23.2744551527
 Cu         6.2090511120        1.4468227595        0.3357964735
 Cu         8.9195129985        4.0745592977        0.3504182763
 Cu        10.2175962373        5.4219886938       24.9654897855
 Cu         2.3926671369        7.8715997904       24.8902975064
 Cu         9.9592959606        5.4138555475        2.2806940501
 Cu         2.5304244260        8.0328286606        2.1026491310
 Cu         2.4497454840        5.3171482416       24.7898191809
 Cu        10.0290018226        7.9810002933       24.7910449011
 Cu         2.3025381850        5.4302394745        2.1540376548
 Cu        10.0551193562        8.0038453438        2.0954670397
 Cu         3.7300455197        6.7645568959       23.0110949245
 Cu         1.2638146756        9.2246306338       23.1143126171
 Cu         3.6594531776        6.6207436187        0.4153685703
 Cu         1.1964406708        9.2126017375        0.2374762376
 Cu         1.0462709497        6.6444548431       22.9604286169
 Cu         3.7746846843        9.1997871606       23.0777740629
 Cu         1.1421571093        6.6905739878        0.4441492212
 Cu         3.7136530069        9.1826818954        0.3493353795
 Cu         4.8771547127        5.3530254453       24.9587044875
 Cu         7.6026947182        8.0040207959       24.9230714117
 Ag         4.9756130987        5.4175764971        2.2934392860
 Cu         7.5336587158        8.0887039854        2.1906065575
 Cu         7.5969369811        5.5118912689       24.9759039780
 Cu         4.8288088863        7.9116377882       24.9234869236
 Cu         7.4845703617        5.3670541123        2.1566997446
 Cu         5.0583688685        8.0017931232        2.1868620569
 Cu         8.7180363033        6.6798298202       23.0656472707
 Cu         6.4994150001        9.2765818927       23.0396398553
 Cu         8.7903977155        6.6357357344        0.3538748287
 Cu         6.2167003933        9.2127412197        0.3955932946
 Cu         6.2235221450        6.6830535416       23.1314776576
 Cu         8.8950240902        9.2102230567       23.0118082098
 Cu         6.3098970893        6.7236381767        0.4280797643
 Cu         8.8607905849        9.1917073406        0.3104180448
  O         6.5480892753        9.2825088259        5.4737607614
  H         5.7117215697        8.8775946954        5.0814946262
  H         7.3430683026        8.9074929403        5.0443920211
  O         8.4719486950        6.2083246720        5.2454437852
  H         9.2729624226        6.5932207511        5.5775556350
  H         8.4207095073        6.3533347548        4.2399956246
  O         3.5739629908        9.7962669841       15.1174875885
  H         2.7347831677        9.2933749343       15.3680020991
  H         3.9800266287        9.5429923420       14.2465337554
  O         6.9296611040        1.8250088701        5.0210049822
  H         6.6145390573        0.9740176272        5.3616890826
  H         6.9141671258        1.6390043581        4.0166494523
  O         3.1979566920        0.5214974792        4.4441953986
  H         4.0087222798        0.8770290726        3.9145526459
  H         3.4046961016        9.8329438859        4.5964798965
  O         6.0348908689        2.3924332475       13.3764982348
  H         5.1913723203        2.2423748580       12.8841775131
  H         5.7466104799        3.0339846778       14.0803881372
  O         4.1491180718        6.4948817692       15.0313371258
  H         3.2439792376        6.4034677834       14.6628851298
  H         3.9595858646        6.2721525748       16.0021734598
  O         9.1192254832        9.6635587293       19.9231743375
  H         8.5338121732       10.3393708072       20.2716878696
  H         8.5367781452        8.8713162049       19.7237156338
  O        -0.5328882327        3.7324195334       17.3601745480
  H        -0.0929043009        4.6651312675       17.4774985838
  H         8.7175154143        3.8504360047       17.1992157858
  O         4.2243691994        7.0475549845       11.4057253186
  H         5.0756175540        6.5916370128       11.6992861076
  H         4.4083689450        7.2936444999       10.4736442075
  O        -0.0175179073        4.1621027259       14.4946857541
  H        -0.8766808548        4.0395917865       13.8556412975
  H        -0.3808459766        3.9111536846       15.4272725047
  O         1.1191080901        9.6029036755       18.1712453822
  H         1.0139129625        9.2332896901       17.2506639880
  H         0.2648244599        9.3830161448       18.6910235267
  O         7.5833171890        7.3016644731       19.4432086023
  H         6.6014820232        7.4721470513       19.6451278597
  H         7.6961102152        7.4207955976       18.4573120055
  O         7.7629055871        3.6354823624        8.5510050706
  H         7.1384391694        4.4052391375        8.7000560593
  H         8.1358003099        3.6725501153        7.6805732475
  O         8.3962708754        7.4122998898       16.7545019134
  H         8.6040642114        8.4008678666       16.8714019745
  H         7.8401684405        7.3905592709       15.9473075546
  O         9.2654099585        3.3069795909       10.6127178877
  H         8.6636415157        3.2100499166        9.8522361146
  H        -0.3194807703        2.5118200877       10.6797048153
  O         4.4770436907        8.5710954167       17.4789572020
  H         4.5650930814        8.8356853511       16.5353090232
  H         5.3954175868        8.6934897530       17.8105648753
  O         6.1451197627        5.5993258559        9.2560890126
  H         5.4504022978        4.9352427373        9.5612944908
  H         5.7160581803        5.8640549358        8.4087374677
  O         8.7589433084        3.4513931854        5.9829159828
  H         8.0989244466        2.7474933493        5.6774715232
  H         8.5946680969        4.3300313747        5.5255907377
  O         6.7763171896       -0.1320047421       11.2276322862
  H         7.0810779467        9.3053716817       10.6860822304
  H         7.4617873648        0.0200678036       12.0031751444
  O         4.5271097231        8.3644061178        9.2359783592
  H         5.4269745359        8.6860379433        8.7725677619
  H         3.9326060175        9.1385171674        9.2240752076
  O         5.5646377507        0.3601755864       19.4299360507
  H         6.1485896577        0.7794601809       20.1825388138
  H         5.2659666282        9.6888132447       19.6738505851
  O         1.0394456618        4.1266402067       20.5670556775
  H         1.9981821774        4.2379275922       20.3078286788
  H         0.7293091494        5.0569120826       20.6453430934
  O         3.3426374565        1.9287591552       12.2112158952
  H         3.6628715433        0.9469073674       12.1253329296
  H         2.8104560302        1.9862041114       13.0717079797
  O         0.4772580344        5.4211568152        9.8612624692
  H        -0.1937687323        4.6542388117       10.1495952438
  H         1.1828947639        4.9004968366        9.3042407607
  O         5.1533483808        4.1877763072       15.2827998441
  H         4.7094564688        5.0363005905       14.9844457702
  H         4.5194561371        3.5259094755       15.6713337304
  O         7.7634244537        2.0559770142       20.4965067209
  H         8.0473466990        2.0782428039       21.4770944319
  H         7.0002343830        2.6781523122       20.2925263134
  O         3.5506127699        4.4130680474       19.6735402911
  H         3.4832795489        4.9951583745       18.9133542891
  H         3.4236787830        3.4485529547       19.2049986713
  O         8.1606949344        7.7644799266       10.5431096879
  H         8.9679054552        8.2920138942       10.8372028015
  H         7.7960365890        7.2936241426       11.3826975708
  O         4.0679069196        1.9206252830       16.1536058870
  H         3.7225961694        1.0298857571       15.7509441731
  H         5.1136256047        1.6828675348       16.3301855076
  O         1.2655107097        6.9308787423        5.2117742148
  H         1.3368953684        7.0803549652        4.2435743585
  H         1.7673473977        6.0780297389        5.3602235467
  O         0.4020116137        9.1547358933       11.4446289050
  H         0.8884920871       -0.2941082786       11.1076604306
  H         1.0853211388        8.3339572053       11.4874954770
  O         0.8312573756        8.7757094838        7.3773902354
  H         0.8427976493        8.5031497647        6.4110281844
  H         0.0069175416        8.3943467245        7.7026818493
  O         1.5361235282        6.9715561882       11.6936443170
  H         2.5118939606        6.8764203506       11.4305824096
  H         1.0631817124        6.3130710571       11.0251271903
  O         6.8230856061        9.0046152903        8.1320628179
  H         6.6639309627        9.1462906077        7.1920727489
  H         7.1895226301        8.0774914796        8.1904473006
  O         2.2988843993        4.1948583773        8.1557566497
  H         2.8200756109        3.5344494268        8.6859801929
  H         2.7932764648        5.0269829467        7.9660532513
  O         4.9765354782        8.1934566814       20.1870929065
  H         3.9669819339        8.1497376767       20.0047461670
  H         4.9512482680        7.9231192429       21.1165183933
  O         0.2371622018        0.2799713039       13.9099382587
  H         0.9706465840        0.9818586984       13.9441384218
  H         0.2690166578       -0.1228137568       12.9681823296
  O         7.6006304774        0.1909339685       13.8429429714
  H         7.0578985972        0.9683986484       14.0824998582
  H         8.5242001484        0.4363106875       14.0973683042
  O         2.4491597231       10.3854706629        8.7488216194
  H         1.8211157322        9.7880909432        8.2328829279
  H         3.0757587979        0.5313298291        8.0779318989
  O         3.1852407919        1.9031442545       18.9243792387
  H         3.8572437783        1.2736699610       19.2550631824
  H         3.2987543273        1.8306303403       17.9386967157
  O         8.8192147366        6.9831077373        8.0007100356
  H         8.6916324148        6.9853089996        8.9415420732
  H         9.4850917511        6.2453051427        8.0064769923
  O         2.9355832464        6.8266887028        7.7536421025
  H         2.2271970841        7.4829397992        7.8081299243
  H         3.7024060996        7.2750501670        8.1132800305
  O         1.1034829380        1.2809045297       10.7420855165
  H         1.4858633242        0.9892707981        9.8925208529
  H         1.8855273356        1.6220842975       11.2476552712
  O         6.9470408415        4.0705931986       17.2505858161
  H         6.1369471979        4.2576313901       16.5839514235
  H         6.6544474847        4.3428566442       18.1693494497
  O         8.0265552493        4.0748299032       12.6774339426
  H         8.4160796727        3.8209441470       11.7954729638
  H         7.4916174293        3.2839023225       12.9242443069
  O         9.1176913092        0.1650407237       16.8793019765
  H         9.8308209554        0.3849096851       16.0945119122
  H         8.2649006373        0.6682437455       16.6818387045
  O        10.2644234809        6.5954917498       20.2064029573
  H         9.2915548504        6.8358086526       20.3209063090
  H        10.7228193941        7.3098212390       20.6983092000
  O         4.7973597171        3.6613925778        5.5255485207
  H         5.5555238125        3.1569576524        5.1482016717
  H         5.1683471787        4.4006346890        6.0557439054
  O         1.7069877485        6.3858835007       14.2753033178
  H         1.4548266011        6.5679592939       13.3195454270
  H         1.2164060635        5.5419570653       14.5356959096
  O         5.9071501858        1.6508403767        9.2888202097
  H         6.6329919269        2.3182546149        9.0914098665
  H         6.2503252422        1.0288950659       10.0453249142
  O         5.9916612506        6.1797429713        6.5241547687
  H         6.9295079108        6.2484283192        6.0621405644
  H         5.3712122850        6.7833556002        6.1196173612
  O         0.5720220556        6.1966547746       17.5035642157
  H        -0.2593931219        6.5726503164       17.0271660394
  H         0.3970549514        6.4584253010       18.4281463311
  O         1.8939622959        2.2918362861       14.2281548721
  H         2.5502548111        2.4865749093       14.9534477776
  H         1.2442590787        3.0771800541       14.1744421514
  O         8.9313926186        0.5940403621        8.1879377550
  H         8.1223695448        0.0730773707        8.5467029232
  H        -1.1702792754        0.2531565656        7.2765664433
  O         4.0676188809        7.8840557949        5.2012990489
  H         3.8342250769        7.5756745921        4.2862607954
  H         3.3862291381        7.5290573830        5.7737318249
  O         6.1990505285        4.3052017108       19.7310616047
  H         6.6437063257        5.0569927405       20.2651967101
  H         5.2417653809        4.4085271969       19.7027074804
  O         6.6459050770        6.3916267814       12.2823590058
  H         7.1377780689        5.5224772470       12.4642645588
  H         6.6836964583        6.8941060151       13.1985083129
  K         1.3791172638        2.1708377836        6.2395856153
  O         4.5795702953        9.7152979636       12.6029786119
  H         4.1139052007        8.9417462297       12.1940284596
  H         5.4480977407        9.8337212277       11.9666089284
  O         1.2979826754        8.5865561645       15.6097881186
  H         0.8220882369        9.1971573567       14.8763723131
  H         1.4512491060        7.7013451195       15.1088659840
  O         2.2261588426        8.3581045117       19.9875663453
  H         2.1098002485        8.9149110921       19.1235775676
  H         2.2732039500        8.8649573999       20.8419044737
  O         6.5205419594        7.8235017868       14.7111858649
  H         6.3771045754        8.7461477013       14.4767543808
  H         5.6400344781        7.3575715661       14.7286799014
  O         4.4057581232        1.0660623042        7.0563466099
  H         5.0266291150        1.2568691065        7.7881618305
  H         4.4417795435        1.9596531092        6.5588919794
  O         4.2251131358        3.4966448909        9.8020720069
  H         3.8482390335        3.2983689922       10.7143039524
  H         4.9000732674        2.6734009123        9.6869175532
  O        -0.3799500987        9.9416330894        5.0153291668
  H         9.0656429161       10.4988777790        4.7604080032
  H         0.0757016957        9.8378330875        4.1241371892
  O         2.3043572040        4.0906174650        4.9174604238
  H         3.3176429146        3.9195010142        5.0730463044
  H         2.0124463057        4.3119436432        3.9712335535
  O         3.2917926415        6.2216623399       17.5446261139
  H         3.7882602731        7.1168863819       17.7012812897
  H         2.3310080550        6.4164530788       17.5301488501
  K         0.1622907180        1.9465553825       19.5787756024
  O         6.5633761391        1.5411795240       16.9748614625
  H         6.6197481548        2.5037854276       17.3227372827
  H         6.3171674676        0.9873035781       17.7067017427
