     274
 i =        0, time =        0.000, E =     -4259.1815656123
 Cu         9.8338580000        0.0642060000       25.7054350000
 Cu         2.2415900000        2.5789790000       25.6898460000
 Cu         9.9698360000       10.2060080000        2.7077270000
 Cu         2.2665360000        2.6005510000        2.9302000000
 Cu         2.1398620000       10.1525370000       25.8586830000
 Cu         9.9597140000        2.5438090000       25.8290900000
 Cu         2.0568440000       10.0080730000        2.9119690000
 Cu         9.8657570000        2.5561790000        2.7484160000
 Cu         3.2994570000        1.0999890000       24.1047910000
 Cu         0.9038950000        3.7341770000       24.0162770000
 Cu         3.4624260000        1.2312640000        1.1718160000
 Cu         1.0631830000        3.8915230000        1.0751110000
 Cu         0.8141290000        1.3167360000       23.6709410000
 Ag         3.4517930000        3.7616800000       23.6070000000
 Cu         1.0543910000        1.2442490000        1.0748470000
 Cu         3.5418660000        3.6698690000        1.1461860000
 Cu         4.7506370000       10.1963980000       25.7027930000
 Cu         7.2911740000        2.4953470000       25.8851050000
 Cu         4.6739580000       10.0534680000        3.0374730000
 Cu         7.2659210000        2.5175330000        2.9386550000
 Cu         7.2846310000       10.1594890000       25.6829770000
 Cu         4.8622820000        2.4920760000       25.8378100000
 Cu         7.3906530000       10.1328050000        2.9603210000
 Cu         4.9037910000        2.3054890000        2.8498770000
 Cu         8.5141570000        1.2651050000       23.9282920000
 Cu         6.0796420000        3.8291570000       24.0627800000
 Cu         8.6711960000        1.1652180000        1.1028540000
 Cu         6.0508110000        3.7308030000        1.1963880000
 Cu         6.0033720000        1.3446470000       24.0622510000
 Cu         8.5117030000        3.6335740000       24.1061120000
 Cu         6.2065210000        1.2125550000        1.2302080000
 Cu         8.5655830000        3.8903980000        1.1239920000
 Cu         9.8432640000        5.1843350000       25.7662060000
 Cu         2.2295260000        7.6368440000       25.6631600000
 Cu         9.8919300000        4.9017470000        2.9946690000
 Cu         2.2840190000        7.4911540000        2.8654660000
 Cu         2.2001830000        5.0531630000       25.6351530000
 Cu         9.7088200000        7.6090350000       25.7519380000
 Cu         2.2083620000        5.0440630000        2.9090620000
 Cu         9.7995060000        7.7358120000        3.0094660000
 Cu         3.3775680000        6.4130440000       23.9401820000
 Cu         0.8089150000        8.9633950000       23.9774370000
 Cu         3.5445240000        6.2489500000        1.0394410000
 Cu         0.9178000000        8.8410150000        1.1311260000
 Cu         0.7588180000        6.2527330000       23.9835140000
 Cu         3.3637650000        8.9535800000       24.0210330000
 Cu         0.9982620000        6.3910620000        1.1031190000
 Cu         3.5293930000        8.8050270000        1.1136870000
 Cu         4.7768110000        4.9357920000       25.7884000000
 Cu         7.2660230000        7.6394000000       25.6586680000
 Ag         4.7748680000        4.8208760000        3.3154330000
 Cu         7.2875960000        7.4750000000        3.0432860000
 Cu         7.2815640000        4.9448910000       25.7453330000
 Cu         4.8131050000        7.5024000000       25.7506170000
 Cu         7.4380920000        5.1243210000        2.8554260000
 Cu         4.7827400000        7.7053440000        2.8007320000
 Cu         8.4400340000        6.0830160000       23.9840420000
 Cu         5.9410060000        8.9444810000       23.9750590000
 Cu         8.6752860000        6.4581310000        1.2220170000
 Cu         6.1162440000        8.8064590000        1.0930780000
 Cu         5.8587040000        6.2270710000       23.9029270000
 Cu         8.4982080000        8.9370180000       23.9293490000
 Cu         5.9912050000        6.1693060000        1.2986410000
 Cu         8.5559730000        8.9767890000        1.2164690000
  O         5.6271320000        6.7180220000        5.9454780000
  H         5.8101400000        7.0570470000        5.0579630000
  H         4.6399130000        6.5996300000        6.0178750000
  O         8.9358930000        6.3582430000        6.0823440000
  H         8.0643060000        6.2770660000        6.5222710000
  H         8.8493990000        6.2989450000        5.0981250000
  O         1.5972800000        1.5446270000       16.2342050000
  H         1.5001530000        0.7934770000       16.9549970000
  H         2.1929240000        1.0775990000       15.5826390000
  O         5.0558210000       10.0250450000        5.4820370000
  H         4.3542570000        9.4604810000        5.9502340000
  H         4.7653600000        0.6922600000        5.7771700000
  O         1.5681420000       10.1387350000        6.1217130000
  H         1.3223590000        0.9004190000        6.1391520000
  H         1.8527750000       10.0840370000        5.1274530000
  O         7.1896510000        4.1943550000       12.5293120000
  H         7.0488680000        3.7627020000       13.4976790000
  H         7.9249540000        3.8245570000       11.9342890000
  O         1.2724670000        4.9977490000       17.1716580000
  H         1.7722110000        4.3494520000       16.6141540000
  H         0.9369180000        5.6808080000       16.5333020000
  O         8.1867880000        0.7889780000       20.6474720000
  H         8.3121330000        0.5607810000       19.6341880000
  H         7.3780770000        1.2629580000       20.7388920000
  O         6.9129920000        4.5063880000       20.6593620000
  H         7.8876370000        4.4424890000       20.8583190000
  H         6.6969610000        4.5142610000       19.6907310000
  O         3.0281150000        7.8468430000       13.0878730000
  H         3.5801030000        7.2866760000       13.6696860000
  H         3.2129630000        7.7834550000       12.1094670000
  O         7.8215900000        2.4181570000       16.9539410000
  H         7.4743870000        2.6337790000       16.0098820000
  H         8.2487450000        3.2116340000       17.4276870000
  O         0.6119000000        1.2278900000       21.5307590000
  H         9.8959170000        1.4549630000       21.1959930000
  H         1.2341270000        1.9447900000       21.2290200000
  O         5.9438690000        4.6974730000       18.1915470000
  H         5.1942520000        5.2621390000       18.3931470000
  H         6.3085550000        5.1833130000       17.4036430000
  O         7.8738340000        2.6320410000        8.6246690000
  H         7.2247190000        3.4860430000        8.8421220000
  H         8.2047820000        2.6855120000        7.6792900000
  O         6.8317120000        6.0609320000       16.1256110000
  H         7.4216310000        6.9409030000       16.2125390000
  H         7.4973900000        5.4051710000       15.7837100000
  O         9.2722590000        3.5564860000       10.8819010000
  H         9.0277040000        3.0327150000       10.0895050000
  H        10.0617490000        3.0824040000       11.4016210000
  O         3.8887630000        8.6192590000       17.1964940000
  H         3.6989050000        9.3048740000       16.5364730000
  H         4.8536940000        8.8737320000       17.5616470000
  O         5.8176040000        4.5313350000        8.9940490000
  H         6.3844170000        5.3784870000        8.8624670000
  H         5.8141270000        4.3257320000        7.9923910000
  O         8.4211200000        2.3929040000        5.7740000000
  H         8.2191980000        1.4413650000        5.5005320000
  H         9.3887100000        2.4941200000        5.5544330000
  O         5.0615460000        1.3836000000       13.1486440000
  H         4.6312220000        1.6579080000       12.2378780000
  H         5.8266010000        0.7669970000       12.8868020000
  O         3.1946620000        8.1569340000       10.6221720000
  H         4.0608310000        8.1255470000       10.0934680000
  H         2.7977700000        9.1139930000       10.6020920000
  O         4.3001720000        9.2520160000       20.8318970000
  H         4.3634580000        9.6424670000       21.7355300000
  H         3.4280740000        8.8178070000       20.6865760000
  O         9.7766040000        7.3785890000       21.1302020000
  H         9.2075420000        7.5694690000       20.2728080000
  H         9.3445420000        8.0441650000       21.7701430000
  O         2.7649520000        4.2340240000       13.2495760000
  H         3.5306190000        4.4139640000       12.6630080000
  H         3.2870860000        3.9197410000       14.0105300000
  O         9.1685890000        6.3183700000       10.8028990000
  H         9.2165390000        5.3029320000       10.7841390000
  H         9.9877280000        6.6352090000       10.3827890000
  O         3.8713820000        4.1237080000       15.7311300000
  H         4.0984550000        5.1146080000       15.6183080000
  H         3.7772200000        3.9418250000       16.7119150000
  O         2.7543190000        5.4214270000       20.9505320000
  H         2.3978110000        6.0172760000       21.6372400000
  H         2.9936600000        5.9943750000       20.1354140000
  O         8.9854790000        4.6722200000       18.1780720000
  H         9.9023580000        4.7946000000       17.7680020000
  H         9.1456880000        4.3775670000       19.1369260000
  O         6.9255680000        9.7656650000       12.1060320000
  H         7.5884850000        9.8100370000       12.8548310000
  H         6.7176130000        8.7771160000       12.0164610000
  O         3.5220310000        2.5275530000       17.8816170000
  H         2.8350870000        2.1520290000       17.2858010000
  H         4.2581520000        1.8193430000       17.8219030000
  O         0.9158570000        5.1611270000        7.3801930000
  H         0.8343720000        5.6657790000        8.2280750000
  H         0.1989570000        5.5685490000        6.7584830000
  O         8.7759910000        0.1532560000       14.0890030000
  H         9.1013160000        1.0627740000       14.3463530000
  H         9.5852130000        9.8569640000       13.9381330000
  O         0.1731930000        9.6517710000        8.9903500000
  H         9.8455130000        9.5241760000        8.2048240000
  H         9.6776370000        9.5942100000        9.6582980000
  O         0.2047850000        7.7567710000       13.5032270000
  H         1.1557100000        7.6189530000       13.3523580000
  H         9.9767880000        6.9428460000       13.1951470000
  O         5.4811350000        8.3140750000        8.9879720000
  H         5.0578660000        8.4120200000        8.1242370000
  H         5.9579780000        9.1819820000        9.2191640000
  O         2.4485220000        2.6868410000        8.7155610000
  H         2.9212750000        2.5253030000        7.8909300000
  H         1.7177170000        3.3708200000        8.7718400000
  O         5.9765850000        6.6980860000       21.6105540000
  H         5.1665460000        7.0894570000       21.2168660000
  H         6.1817790000        5.8694390000       21.0345540000
  O         7.4852240000        8.6303010000       16.0640480000
  H         7.7379590000        9.0348600000       16.9621310000
  H         7.8376420000        9.1221730000       15.3083780000
  O         5.8728130000        1.1884260000       18.2808530000
  H         5.9441750000        1.6249870000       19.1482880000
  H         6.4671280000        1.7147530000       17.6879440000
  O         2.1326030000        0.2466000000       10.7373720000
  H         1.5256100000        0.2384210000        9.9259530000
  H         2.9397800000        0.8563540000       10.6327410000
  O         2.7568750000        2.7285540000       20.6556630000
  H         2.7947030000        3.7386760000       20.7967560000
  H         2.7790600000        2.6610770000       19.6989220000
  O         7.5463630000        6.5506570000        8.3879280000
  H         6.8997010000        7.3094750000        8.4954660000
  H         8.1045880000        6.5645620000        9.1755680000
  O         1.0622630000        7.1182880000        9.4852340000
  H         0.6461500000        7.9357910000        9.1063420000
  H         1.9317040000        7.4797030000        9.7647790000
  O         1.0784170000        2.4126360000       12.0666630000
  H         1.6010630000        1.6640420000       11.6938490000
  H         1.6498310000        3.0427350000       12.4706560000
  O         6.2523240000        3.1292290000       14.8832480000
  H         5.8470480000        2.4673340000       14.1886140000
  H         5.3621290000        3.4692760000       15.2071820000
  O         8.9020520000        5.2684780000       14.4914100000
  H         8.1850500000        5.1855620000       13.8242550000
  H         9.3749070000        4.3408630000       14.4462280000
  O         5.8471510000        8.5801010000       18.7516930000
  H         6.1736000000        9.5315370000       18.6132420000
  H         5.3107030000        8.6581100000       19.5715680000
  O         7.6146580000        8.7460350000       22.0071480000
  H         7.0149250000        8.0100170000       21.7817680000
  H         7.4748980000        9.5450330000       21.3944220000
  O         3.7553410000        2.1769750000        6.2052070000
  H         3.1343410000        2.3813510000        5.4307780000
  H         4.5228490000        2.7830480000        6.2292510000
  O        10.0400740000        2.5442180000       14.4290540000
  H         0.3138740000        2.2372960000       13.5716600000
  H         0.5071050000        2.2361710000       15.1546020000
  O         4.2539600000        1.8132090000       10.5939010000
  H         5.1211520000        1.4042530000       10.1875310000
  H         3.8663720000        2.5101720000       10.0406240000
  O         5.9140150000        4.1079630000        6.2649200000
  H         6.6966550000        3.6008580000        5.9911890000
  H         6.0344520000        5.1267750000        6.0767960000
  O         8.3269580000        7.3157120000       19.0264820000
  H         8.5418640000        6.3813490000       18.6903940000
  H         7.3816560000        7.4669230000       18.9350620000
  O         8.5648680000        0.1478380000       17.9157010000
  H         9.4962650000        0.0656370000       17.9748870000
  H         8.4948340000        0.9800630000       17.3690300000
  O         6.3861550000        0.4839990000        9.6847200000
  H         6.9563420000        1.1746240000        9.2136160000
  H         6.8400960000        0.3331970000       10.5492480000
  O         2.9184120000        6.1874020000        6.0487880000
  H         2.8223080000        6.0018380000        5.0975960000
  H         2.4373780000        5.5671180000        6.6282230000
  O         3.1957870000        6.4676390000       18.6267170000
  H         3.3396370000        7.3897330000       18.2570740000
  H         2.5255080000        6.0174810000       18.0573230000
  O         6.6827500000        7.3128490000       11.9208140000
  H         7.5152820000        6.9949880000       11.5120650000
  H         6.0030650000        6.5883830000       11.8293940000
  O         7.5496340000       10.2214460000        5.0138390000
  H         6.5954380000        9.8292570000        5.3102940000
  H         8.2179710000        9.5669120000        5.4508590000
  O         3.1536640000       10.2001810000       14.4710650000
  H         3.2137810000        9.3821660000       13.9103900000
  H         3.9518440000        0.4882930000       14.0810760000
  O         0.2725690000        7.3304340000       16.1525610000
  H         9.7685270000        7.6723210000       16.6411040000
  H         0.1273900000        7.5471810000       15.1767970000
  O         1.6356200000        8.9138090000       20.2923600000
  H         1.3340140000        9.7177150000       20.8242350000
  H         0.9066550000        8.2478250000       20.5396700000
  O         4.4093640000        6.6892930000       15.2040110000
  H         5.3895290000        6.6977790000       15.2317550000
  H         4.2322860000        7.3139740000       15.9472620000
  O         3.5153860000        8.5788740000        7.0316870000
  H         2.6696650000        9.0872070000        7.0715840000
  H         3.1246280000        7.7868290000        6.6506820000
  O         4.9996920000        5.2962870000       11.5921240000
  H         5.7556470000        4.7267130000       11.9472360000
  H         4.8111630000        4.9750520000       10.6618050000
  O         9.3289000000        9.0849580000        6.3629460000
  H         9.3426000000        8.0206500000        6.3513200000
  H         0.0200390000        9.2280920000        5.9845830000
  O         1.1205390000        2.9206620000        5.9005610000
  H         1.0925260000        3.6917480000        6.6158050000
  H         1.3032410000        3.4406490000        5.1303600000
  O         0.8387690000        9.6703780000       17.8565160000
  H         1.1876080000        9.3833930000       18.7371610000
  H         0.8937730000        8.8433670000       17.2852720000
  O         9.5519850000        4.5488180000       21.0678460000
  H         9.8960200000        5.5046500000       21.2921690000
  H         9.8534880000        4.0611380000       21.8256290000
  O         5.6899070000        2.1333190000       21.2734090000
  H         6.0514240000        3.0566390000       21.2808070000
  H         4.7120930000        2.2017170000       20.9856740000
     274
 i =       20, time =       20.000, E =     -4259.1967414223
 Cu         9.8595394524        0.0318733637       25.6778181735
 Cu         2.2276967961        2.5408248544       25.6584543131
 Cu        10.0274692191       10.1622154277        2.7556581302
 Cu         2.3351103842        2.5550457719        2.9399599967
 Cu         2.1689120366       10.1249438409       25.8893491383
 Cu         9.9520532172        2.5180582655       25.8501473798
 Cu         2.0370160139        9.9757534252        2.8791369304
 Cu         9.8354536064        2.5708922976        2.7152414202
 Cu         3.3076501553        1.1883034078       24.0651494174
 Cu         0.8652309586        3.8081662243       23.9849375527
 Cu         3.5070154795        1.1966339261        1.2180296766
 Cu         1.0501690580        3.8990961437        1.0316346065
 Cu         0.7885185657        1.3018967778       23.7207236122
 Ag         3.4547198280        3.8160101425       23.6088618922
 Cu         1.1101415613        1.2794342950        1.0980775379
 Cu         3.5340931597        3.6324474406        1.1791360811
 Cu         4.7372855687       10.2059999704       25.7335505710
 Cu         7.3299849206        2.4837195463       25.8639401569
 Cu         4.6466855456       10.1011963064        3.0499447596
 Cu         7.3127422119        2.5236348230        3.0199918628
 Cu         7.2454479127       10.1674553122       25.6756149735
 Cu         4.8936936399        2.4837586699       25.8118600882
 Cu         7.2813210185       10.1226546160        2.9685344890
 Cu         4.8368322257        2.3329430433        2.8425119989
 Cu         8.5731577047        1.3004870660       23.9895045956
 Cu         6.0999610380        3.7562850592       24.0637977088
 Cu         8.6757652596        1.1873214298        1.1055608723
 Cu         5.9949208399        3.7252797945        1.2178117700
 Cu         5.9520607994        1.3385768986       24.0262285811
 Cu         8.5296510333        3.6904508690       24.1285101904
 Cu         6.1638159414        1.2078746621        1.2515966357
 Cu         8.6526359881        3.9206268082        1.1607115965
 Cu         9.8591361712        5.1252103702       25.7485733933
 Cu         2.2824462461        7.6591593497       25.6443047434
 Cu         9.8562629503        4.8904485280        2.9921253376
 Cu         2.2160133138        7.5286300289        2.8507063702
 Cu         2.1881508436        5.1289338698       25.6635564455
 Cu         9.7256772201        7.6131056875       25.7343403302
 Cu         2.1424507810        5.0440513624        2.9098956025
 Cu         9.8193748472        7.7284364808        2.9400928985
 Cu         3.3611599392        6.3756346658       23.9117315119
 Cu         0.7964029819        8.9360377990       23.9656820839
 Cu         3.5421673514        6.2238083261        1.0445697524
 Cu         0.8512707273        8.7743166498        1.1074171289
 Cu         0.7657866525        6.2485301432       23.9349212918
 Cu         3.3970310462        8.9524389133       23.9321957844
 Cu         1.0080139422        6.4349387428        1.0997431464
 Cu         3.4658163365        8.8063508357        1.0919004972
 Cu         4.7933250717        4.9306024422       25.7947837119
 Cu         7.2872411712        7.6180230671       25.6605021866
 Ag         4.8079246754        4.7982634396        3.3476069688
 Cu         7.3078193373        7.5689709315        3.0653197921
 Cu         7.2802205699        4.9803969505       25.7737727334
 Cu         4.7496377317        7.4976487576       25.6759282136
 Cu         7.4108275046        5.0719057437        2.8675850414
 Cu         4.8292687928        7.6747024480        2.7892092414
 Cu         8.5126972992        6.0872836916       24.0289398827
 Cu         5.9402297957        8.9351704917       24.0269927096
 Cu         8.6774332897        6.4316733054        1.2004946981
 Cu         6.0884992693        8.8419681695        1.1379202031
 Cu         5.8850992552        6.1940286755       23.9005183540
 Cu         8.5012305447        8.9411496106       23.9176925747
 Cu         6.0361839483        6.1601847840        1.2981034580
 Cu         8.5213761595        8.9928942100        1.1403904503
  O         5.6942948910        6.6902223027        6.0634278008
  H         5.6468807109        7.1984724941        5.1954141813
  H         4.7396418877        6.4887493081        6.2476117889
  O         9.0378289974        6.3944312152        6.0826785787
  H         8.1402551201        6.3414262908        6.5446295215
  H         8.9454866702        6.3749233824        5.0966349313
  O         1.6321068375        1.4504109372       16.2177854886
  H         1.2641759709        0.6216592475       16.6577823670
  H         2.0677839122        1.0270689894       15.4176658185
  O         4.9436812585        9.9760387860        5.4323115589
  H         4.5970049232        9.1314269442        5.8533784924
  H         4.4308593304        0.5459415203        5.8330063740
  O         1.5104653394       10.2279070571        5.9453683206
  H         1.3532843834        0.9192968706        6.2012876976
  H         1.9095148984       10.1612321610        5.0684310926
  O         7.1414654462        4.2309371111       12.6500693249
  H         6.7182979742        3.7266146095       13.2980940853
  H         7.7259207558        3.6141335094       12.1859010894
  O         1.2137221172        5.0904055088       17.2067890406
  H         1.5035452747        4.4557377838       16.5499988091
  H         0.9280677324        5.9068606484       16.7112393678
  O         8.2222099477        0.8699512310       20.6139542823
  H         8.3098072698        0.6080266956       19.6679458230
  H         7.4837702906        1.6010009868       20.5672919624
  O         6.8485992170        4.5200828497       20.6177683187
  H         7.8172078633        4.6091214336       20.8350061734
  H         6.6618590787        4.5840262938       19.6067086253
  O         2.9204889085        7.8615403165       13.0636712330
  H         3.5629783119        7.3271040344       13.6083571609
  H         3.2611232244        7.7922304732       12.1491591218
  O         7.8856821707        2.4743926805       16.8809855807
  H         7.3594469590        2.7083456506       16.0416681082
  H         8.2424425455        3.2816364982       17.3006167837
  O         0.6174774990        1.2441454221       21.5322897795
  H         9.9442822926        1.1981509282       21.2109852900
  H         1.1309244032        1.9324644520       21.0405357375
  O         6.0030254674        4.6346726750       18.1896165557
  H         5.0967426017        5.0412370701       18.3444620775
  H         6.4120623109        5.2541964252       17.4991405276
  O         8.0508239708        2.6871439134        8.7128518068
  H         7.2139599437        3.2842312553        8.6412124300
  H         8.1423068974        2.5725580389        7.7262786594
  O         6.8250392782        6.0962601970       16.1179217122
  H         7.0190562185        7.0431022063       16.2492144310
  H         7.6425797979        5.6920610254       15.7099968302
  O         9.2795559607        3.5083196672       10.8745942967
  H         9.0766822890        3.1814186254        9.9381435413
  H         9.9800519625        3.0118967902       11.2659490250
  O         3.8288055928        8.6508187340       17.1392781308
  H         3.5387139990        9.1696360857       16.3223789613
  H         4.7442255832        8.8076604350       17.3569259046
  O         5.8809302138        4.4650887480        8.9105659805
  H         6.5224100355        5.2490944502        8.9459837654
  H         5.5709176286        4.4572035543        7.9465114519
  O         8.5119888458        2.3384767254        5.8388364107
  H         8.1988477026        1.4476816872        5.5396943184
  H         9.4724138508        2.4057880872        5.6436192005
  O         5.0959676706        1.3386123443       13.1110404693
  H         4.8507545122        1.9163766405       12.3955068389
  H         5.5428412329        0.5822404395       12.7155597472
  O         3.2884807177        8.0734096044       10.5707938215
  H         4.0921945505        8.1004708561       10.0191563915
  H         3.0311287588        9.0075010525       10.7121651344
  O         4.3175758976        9.1190327577       20.8153137595
  H         4.4721655857        9.2957953706       21.7719607535
  H         3.3529532659        9.1767746996       20.5226805039
  O         9.8445314427        7.3844607191       21.1051614329
  H         9.1847667454        7.4272156274       20.2971713306
  H         9.2980967753        7.8404034129       21.7410872156
  O         2.7366293307        4.1928267310       13.1943285844
  H         3.4729132376        4.6811372044       12.7018674544
  H         3.0170257123        4.0858804820       14.1343125329
  O         9.1951951137        6.4203062071       10.7951710014
  H         9.2384716318        5.4567145826       10.8947708275
  H        10.1843912141        6.6735420942       10.7443261334
  O         3.9354396458        4.1800082896       15.8356577207
  H         4.0321975053        5.1874959568       15.8218123401
  H         4.1906078446        3.7932609688       16.7051165858
  O         2.8233355898        5.4382318260       20.8951956889
  H         2.0828757577        5.7265928417       21.4659024047
  H         2.8007439504        5.9825649663       20.0776178251
  O         8.9883790060        4.6563311995       18.2508610581
  H         9.8080368984        4.6548796451       17.7039342505
  H         9.3656690389        4.3518615647       19.0703540160
  O         6.9566476790        9.8327792409       12.0628829868
  H         7.8097210632       10.0336711226       12.5056714528
  H         6.8360145394        8.8562949285       12.1877873741
  O         3.4433777428        2.4339156507       17.9110453105
  H         2.7936870030        1.9696018490       17.2602195150
  H         4.2031811385        1.8319341513       18.0052893858
  O         0.8306912697        5.0599898647        7.4998752083
  H         0.9816801381        5.8639004623        8.1017034517
  H         0.0234567159        5.2708521029        7.0181165073
  O         8.8553022010       -0.0500463004       14.0759493713
  H         9.0240329931        0.9072316032       14.3231013142
  H         9.6675254650        9.6465345908       14.0070316274
  O         0.0480749087        9.7045576109        9.0596832241
  H         9.8908370168        9.7816138082        8.0965258951
  H         9.5129823216        9.9153549971        9.6240725767
  O         0.1346713422        7.7306711494       13.4151229740
  H         1.1187714194        7.7175794455       13.1787074522
  H         9.8620309930        6.8984611588       13.2133633497
  O         5.4863387760        8.2753680710        8.9509957495
  H         4.8850312289        8.4277841600        8.1645228186
  H         5.7139317394        9.1798087885        9.2252674355
  O         2.4209863945        2.7056345975        8.6966990731
  H         2.7671593058        2.5203171100        7.7402901167
  H         2.0684882982        3.5552375241        8.6243242072
  O         5.9557182790        6.6797448660       21.6844257498
  H         5.1729393805        7.0681345260       21.2207473668
  H         6.2903096712        5.7692198366       21.2595624635
  O         7.6513137383        8.6667151114       16.1682579928
  H         7.9186077086        9.3041486172       16.8481968198
  H         7.7431156805        9.1573532027       15.2937551978
  O         5.8294031506        1.2428123169       18.3047226106
  H         5.7567766645        1.7678522990       19.1449893376
  H         6.5679063577        1.7268324081       17.7888984151
  O         2.1343460482        0.2872690622       10.6962152216
  H         1.5379253113        0.2413522024        9.9457942957
  H         2.9128256246        0.8349996355       10.3542209972
  O         2.7514032479        2.7741943426       20.6712585504
  H         2.9885964592        3.7258431146       20.7932906942
  H         3.0844947189        2.5168867495       19.7359523266
  O         7.6063554672        6.6344232531        8.4352467579
  H         6.8894711117        7.2702794606        8.7248118128
  H         8.3771250641        6.6842384778        9.1071956105
  O         1.0443404212        7.1821402032        9.3843013359
  H         0.5923337130        8.0580085852        9.2624772911
  H         1.9619734193        7.4550518923        9.8181502573
  O         1.0004540489        2.4192934639       12.2031133462
  H         1.2809253030        1.6500082947       11.6350023453
  H         1.8223650111        3.0949698215       12.3893050175
  O         6.2470187201        2.9725996287       14.9457129259
  H         5.8250991790        2.1990237043       14.5657673804
  H         5.4805114550        3.5324466272       15.3123216661
  O         8.9378566146        5.1261120274       14.4158371168
  H         8.1832312601        5.2740033526       13.7750036100
  H         9.3622241290        4.2979026602       14.2070260640
  O         5.7827989675        8.5716612372       18.8052004334
  H         5.9804469117        9.5358896746       18.7738624102
  H         5.1893530163        8.5657271652       19.6470455258
  O         7.5618111589        8.7461951138       22.0187423680
  H         7.0483753842        7.9000815173       21.7704900176
  H         7.5769841114        9.5313420667       21.4228390926
  O         3.9128560681        2.2083152511        6.1297655796
  H         3.0492344023        2.5025502526        5.8241198781
  H         4.5248182825        2.9500430819        5.8653748266
  O         9.9498542511        2.5223529339       14.4115553553
  H         0.2780259570        2.4147269498       13.6174384217
  H         0.2832352388        2.3953979905       15.1599903898
  O         4.2432671423        1.8110390040       10.6444056058
  H         5.0208058017        1.3484494217       10.2752430630
  H         3.9183561053        2.5163426620       10.0285997497
  O         5.8657295991        4.1583265757        6.2430077234
  H         6.6559219421        3.6452012009        5.9376972892
  H         5.8314256752        5.0630919428        5.8627785767
  O         8.3296575946        7.3435482532       18.9498833187
  H         8.3138023644        6.3995178432       18.7073314161
  H         7.3186287202        7.5263038284       19.0036012859
  O         8.5703613106        0.1586281946       18.0244532806
  H         9.5560010960       -0.1782115690       17.8454385238
  H         8.5087226192        1.0432420337       17.5003273578
  O         6.3774531707        0.5399500211        9.7150169688
  H         6.9572946684        1.1813465561        9.2283271529
  H         6.8519562222        0.1876950918       10.5557258064
  O         2.9168503308        6.1608119879        5.9949762624
  H         2.7121415592        5.8989723987        5.0450338836
  H         2.1186638097        5.7925884707        6.4684995628
  O         3.2716540636        6.4905723927       18.6354523618
  H         3.4124396210        7.2971412548       18.0977676408
  H         2.6262476744        5.9656563707       18.0904174315
  O         6.7644371662        7.2351197319       12.0125545415
  H         7.6133588161        6.9792634189       11.5967838284
  H         6.0376880384        6.5680035940       11.8294033141
  O         7.5241158162       10.2633716541        5.0184655879
  H         6.5737800148       10.2415123005        5.4044673718
  H         8.1446120492        9.6891249758        5.5399803867
  O         3.1601937831       10.1811419695       14.5272984817
  H         2.8785671925        9.5021160562       13.8395519867
  H         3.7018532597        0.5583070607       13.9715453542
  O         0.2560009773        7.4494238942       16.1793166977
  H         9.4893452928        7.4009594823       16.4574385318
  H         0.2152559830        7.4690277555       15.1668024889
  O         1.5199231949        8.7926917817       20.2385797705
  H         1.4119886450        9.5776211891       20.7945054457
  H         0.9373316496        8.0941082259       20.6921084824
  O         4.4155419845        6.7303081497       15.3042740124
  H         5.4264419873        6.6115730727       15.3189458522
  H         4.2482994248        7.3460976309       16.1067202777
  O         3.4944785985        8.6813236066        7.0909345387
  H         2.8265455317        9.4067098525        6.9916193893
  H         2.9940917423        7.8026046511        6.8526410609
  O         4.9767111962        5.2335697600       11.5169528979
  H         5.7154618612        4.7013719461       11.9424723090
  H         5.1250843395        5.1841192728       10.5663516617
  O         9.4535638129        9.0684222934        6.4461025598
  H         9.3892587623        8.1108673164        6.3429096604
  H         0.1347684279        9.3442373471        6.1266328916
  O         1.1429020258        2.9173666086        5.8750324475
  H         0.9755060057        3.6190160015        6.4965470910
  H         1.2421745936        3.4239431439        4.9415825483
  O         0.8117682483        9.7633393779       17.7853879427
  H         1.1791404566        9.4403243015       18.6757679938
  H         0.6548651291        8.9221879728       17.2928392990
  O         9.5497736660        4.5003772375       20.9915824782
  H         9.7530583805        5.4269485247       21.1271046629
  H         9.7884739169        4.0928116992       21.9069389901
  O         5.7559898087        2.0760000325       21.2683629797
  H         5.9915720579        3.0717397143       21.2681805716
  H         4.8176058884        1.9608879525       21.4391715992
     274
 i =       40, time =       40.000, E =     -4259.2043521418
 Cu         9.8857206328       -0.0235970244       25.6540646497
 Cu         2.2132583299        2.4996264631       25.6515468373
 Cu        10.0122664019       10.1553275591        2.8217563087
 Cu         2.3705375808        2.4888719215        2.9562326801
 Cu         2.1975611089       10.1128648069       25.8637329611
 Cu         9.9346112500        2.4979321153       25.8450518677
 Cu         2.1038323375        9.9740007370        2.8438352443
 Cu         9.8493318869        2.5334278726        2.7088528071
 Cu         3.3473367369        1.2606772182       24.0090375779
 Cu         0.8006884387        3.8743999689       23.9548797716
 Cu         3.5649653517        1.1241834882        1.2409707632
 Cu         1.0220886404        3.8901923708        1.0117467107
 Cu         0.7803317781        1.2833692081       23.7870764538
 Ag         3.4670513514        3.8628072043       23.6182036941
 Cu         1.1123755918        1.3226574056        1.1440063891
 Cu         3.5108730910        3.6435840419        1.1777213227
 Cu         4.7180745060       10.2005905767       25.7835570102
 Cu         7.3825058233        2.4592035423       25.8381716402
 Cu         4.6171584381       10.1467600826        3.0537523709
 Cu         7.3769131218        2.5442921434        3.0780872689
 Cu         7.2254590539       10.1881321003       25.6897252551
 Cu         4.8656313902        2.4615103813       25.7935906923
 Cu         7.1952400244       10.1134135736        2.9804192712
 Cu         4.7570059017        2.3470983040        2.8859812728
 Cu         8.6112152733        1.3223094152       24.0605431360
 Cu         6.1217455806        3.6838297559       24.0416130071
 Cu         8.6604098327        1.2269512535        1.1221316702
 Cu         5.9817599295        3.7198169470        1.2313535210
 Cu         5.9112880043        1.3066205375       23.9628707939
 Cu         8.5794128451        3.7476150599       24.1250850069
 Cu         6.1056718768        1.1664999137        1.2432126568
 Cu         8.7145025025        3.9147428986        1.1596686789
 Cu         9.8814582196        5.0487995225       25.7618767368
 Cu         2.2775007249        7.6666967021       25.6392711979
 Cu         9.8538622193        4.9476411416        2.9875090241
 Cu         2.1655916480        7.5638300848        2.8531917371
 Cu         2.1897540543        5.1910865689       25.7002399936
 Cu         9.7694103735        7.6348556874       25.6921315392
 Cu         2.0768846007        5.0448941222        2.9056851463
 Cu         9.8525369199        7.6927784306        2.8798915253
 Cu         3.3516091559        6.3598471926       23.8714779791
 Cu         0.8103169656        8.8951136863       23.9658376540
 Cu         3.5223001961        6.2062018942        1.0782760239
 Cu         0.7946480808        8.7440357263        1.0486759339
 Cu         0.8051082738        6.2822049810       23.8838416497
 Cu         3.4365123281        8.9424096035       23.8529864375
 Cu         0.9945143261        6.4258457911        1.0889657984
 Cu         3.4185561085        8.8166677637        1.0789463246
 Cu         4.7888969817        4.9517888443       25.7922238700
 Cu         7.2921626309        7.5691715361       25.6783498816
 Ag         4.8294036215        4.8006816718        3.3758999759
 Cu         7.3289704448        7.6532030018        3.0495766577
 Cu         7.2704364011        5.0569491504       25.8371824613
 Cu         4.7010400798        7.5059024906       25.6139265290
 Cu         7.3979991463        5.0154703627        2.9235634887
 Cu         4.8473744019        7.6135494292        2.8023238635
 Cu         8.5736905447        6.1433034804       24.0563688628
 Cu         5.9254028744        8.9204104077       24.0648522823
 Cu         8.6543074957        6.3980027197        1.1779106059
 Cu         6.0440934502        8.8837570860        1.1718830042
 Cu         5.9236430220        6.1801647730       23.8934493181
 Cu         8.5182042149        8.9380971894       23.9197394049
 Cu         6.0814540765        6.2017996736        1.2458757287
 Cu         8.4973541953        8.9790223780        1.0537322335
  O         5.7122778893        6.7389479913        6.1441929963
  H         5.7177688475        7.0612203503        5.2285182779
  H         4.7514250875        6.5571135960        6.2867929352
  O         9.1508305640        6.4266557248        6.0789645476
  H         8.3897749262        6.5544481550        6.7023464604
  H         8.6962140907        6.2032329934        5.2055351859
  O         1.6364002337        1.4018393984       16.0986003251
  H         1.2420172718        0.8253234919       16.7964911342
  H         2.1765723378        0.7754841384       15.5142442305
  O         4.8856163366        9.9957180111        5.3046863578
  H         4.5290364787        9.3497611715        5.9620441993
  H         4.4209821762        0.6280912751        5.4686107841
  O         1.5279314066       10.3605433257        5.8414953017
  H         1.3003742858        1.1197988132        5.8991512218
  H         1.6980604185       10.2782956314        4.8439443234
  O         7.0150830507        4.1851383493       12.7281415198
  H         6.9484660162        3.5307650094       13.5689369225
  H         7.7032973501        3.7007235989       12.1530797032
  O         1.1473905545        5.2202519511       17.2030236671
  H         1.5659201625        4.6636091376       16.4918149410
  H         0.9015280004        6.1187971631       16.7741923910
  O         8.2973658971        0.8962399735       20.5739283374
  H         8.2797582172        0.7067402250       19.5641607034
  H         7.5474059301        1.3955365221       20.8322202481
  O         6.7560164382        4.5382980680       20.6306718765
  H         7.7500663737        4.4041429518       20.6986420072
  H         6.6088822181        4.5958510123       19.5809537811
  O         2.7736775019        7.8449308803       13.1531475290
  H         3.3635485540        7.4207210811       13.8180295671
  H         3.2895706939        7.7269883729       12.2487005182
  O         7.9839179195        2.5060652809       16.8533307385
  H         7.2771749459        2.7082889167       16.2102767699
  H         8.1212287037        3.3581803972       17.3484732740
  O         0.6596229965        1.1972988689       21.5321742057
  H         9.8999251241        1.2561841521       21.1653665204
  H         1.2932985224        1.9061315368       21.1470657209
  O         5.9811588217        4.6209289406       18.2129682815
  H         5.0904495432        4.9583577745       18.3477196490
  H         6.4018654629        5.1862650869       17.5171172145
  O         8.1007690586        2.6458827686        8.6848247475
  H         7.3316815761        3.2200729980        8.7203070404
  H         8.3704143712        2.5775578197        7.7331472382
  O         6.9491137907        6.1678041343       16.1121775232
  H         7.0966814305        7.1431750835       16.2894954581
  H         7.5791214709        5.8681586927       15.3998408717
  O         9.1789054490        3.5703265200       10.9015217291
  H         9.0065937259        3.2342255946       10.0006505676
  H        10.2074282168        3.2851877008       11.1101986677
  O         3.6872733810        8.7020581413       16.9295674892
  H         3.6587407356        9.3847656342       16.2096094297
  H         4.4317645499        8.8891090969       17.6027128875
  O         5.9999011010        4.4460007700        8.8672448525
  H         6.6778624527        5.1209494579        8.7134766934
  H         5.5720180454        4.2470252589        8.0237599341
  O         8.5593697046        2.3452462157        5.9809549493
  H         8.1490262966        1.6010471976        5.4555514066
  H         9.5022944601        2.4826541139        5.7674467301
  O         5.1116895935        1.2754885806       13.1566556106
  H         4.7309781652        1.8111340976       12.3470634487
  H         5.7581274592        0.5842997805       12.7409477691
  O         3.3946906452        7.9941470598       10.4596875316
  H         4.3427585648        8.0727336151       10.0557008255
  H         2.9895529135        8.9302258196       10.4348887279
  O         4.2619893085        8.9913215136       20.8269306395
  H         4.3612246211        9.0840915528       21.8064582074
  H         3.2932182577        8.9337408806       20.8279690576
  O         9.8485074355        7.2415167785       21.0301549486
  H         9.2326353608        7.3171126351       20.2288834904
  H         9.4461533803        7.5825237057       21.9199807159
  O         2.7307630191        4.1764599268       13.1171260092
  H         3.3408863629        4.7482170861       12.6393079068
  H         2.8944721570        4.1158996628       14.0814539847
  O         9.1663832358        6.4220102102       10.8539147256
  H         9.3201068088        5.4031134947       10.8589096151
  H        10.0076702779        6.7594218494       10.5155948849
  O         4.0269980467        4.2083521322       15.8789994159
  H         4.1381933143        5.1545231547       16.1280098821
  H         3.6721892265        3.6688582269       16.6517118914
  O         2.8764751022        5.4716249917       20.9482461743
  H         1.9561819730        5.4876365789       21.2880386365
  H         2.9067894523        6.0876813544       20.1588862201
  O         9.0183942715        4.5902169123       18.2995928770
  H         9.8828744223        4.8916092020       17.8689767515
  H         9.3845974232        4.3130678581       19.2201254916
  O         7.0290274614        9.9144392378       12.0206602181
  H         7.6973749093       10.1312650655       12.7583964413
  H         6.9219615744        8.9012245092       11.9403358357
  O         3.3744176778        2.3492461678       17.9910119021
  H         2.6783568228        1.9993683126       17.4065377554
  H         4.3091520486        1.9392404688       17.8797456964
  O         0.7369942112        5.0867730279        7.6348335845
  H         0.9198095056        5.7342863431        8.3565249047
  H        -0.1815172996        5.3969909740        7.2809944091
  O         8.8881603511       -0.2037184604       14.0402913800
  H         9.3591801629        0.6366142319       14.1543744515
  H         9.5823132099        9.3013231754       13.8410878590
  O        -0.1412457621        9.7989197759        9.0801413965
  H         9.8873930560        9.5106929292        8.1849126512
  H         9.3481082135       10.2088657757        9.5718304024
  O         0.1213704837        7.7359870433       13.3864324552
  H         1.0562848733        7.5799352608       13.1210612178
  H         9.9128413658        6.8822779742       13.2611135108
  O         5.4630219542        8.2769571294        8.9390909512
  H         4.7482683660        8.4047294806        8.2551502526
  H         5.8635987831        9.2214287721        8.9582931350
  O         2.4181815691        2.7155723079        8.6539736720
  H         3.0787921445        2.6726014099        7.9803209541
  H         2.1751199273        3.7145027139        8.4749643939
  O         5.9596911919        6.6765978034       21.7626744182
  H         4.9862255566        6.6397781798       21.6720644389
  H         6.3785284520        5.8646174228       21.3007839193
  O         7.7550054426        8.6606188896       16.2356942932
  H         8.0174824083        9.4119650313       16.8924000999
  H         8.0597522962        9.1971234765       15.4553573813
  O         5.7907088872        1.2946684354       18.3808723673
  H         5.7538234126        1.5928798848       19.3148964097
  H         6.4794638421        1.8397164667       17.9576961152
  O         2.1145469013        0.3129059853       10.6663474533
  H         1.5672116516        0.2866312723        9.8121917006
  H         2.8004942302        0.9760610343       10.5307012588
  O         2.8174714593        2.7436389805       20.6540064720
  H         2.4158363770        3.6711201389       20.5925978756
  H         2.9885263061        2.5871813358       19.6846446970
  O         7.6794708039        6.6750358533        8.5163676619
  H         6.9729240120        7.3492689045        8.6341600459
  H         8.2092129733        6.6629855343        9.3258642838
  O         1.1040222251        7.2166573431        9.2616907153
  H         0.6885174826        8.1179353939        9.1596418992
  H         1.9697887470        7.3005038813        9.7205697081
  O         1.0432352759        2.3919612829       12.2518676299
  H         1.4455206176        1.5356637981       11.9833178117
  H         1.8205904598        2.9883636159       12.4736600357
  O         6.1909512588        2.8537008163       14.9576269554
  H         5.7869533974        2.0427143505       14.4591677836
  H         5.4954570411        3.4568258907       15.2631197169
  O         8.9780803420        5.1154343071       14.3517163007
  H         8.4296470205        4.8697550465       13.5921899685
  H         9.1793654540        4.1450333317       14.7341402299
  O         5.8884496748        8.5990545180       18.8526559463
  H         6.1478430158        9.5468345978       18.6743117787
  H         5.2377315938        8.6660734722       19.5745984540
  O         7.5087868986        8.7735894062       22.0436980007
  H         6.8857143292        8.1267408484       21.5506440836
  H         7.7303293657        9.5346830374       21.4228521721
  O         4.0299808221        2.2263800189        6.0869000432
  H         3.1109995131        2.5770215419        5.8054434335
  H         4.5787527445        3.0744032599        5.9737600722
  O         9.7868539428        2.5117145427       14.4454765797
  H         0.2214881592        2.4968828307       13.6348506386
  H         0.0919773702        2.2039340926       15.2738099482
  O         4.2312353366        1.8700762804       10.6451841184
  H         5.0525797461        1.4626791765       10.1824546581
  H         3.9404129595        2.5008290295        9.9415611688
  O         5.8373139654        4.0713570502        6.1396486282
  H         6.7410297978        3.7892511641        5.8840849679
  H         5.9277541606        5.0639839065        5.9199807725
  O         8.3150737555        7.3225641104       18.8989304698
  H         8.1361095373        6.4335738334       18.4836299450
  H         7.5468646149        7.8824275774       18.8091154538
  O         8.5435582266        0.2036755191       18.1295854188
  H         9.5176170547       -0.0662914064       18.1386136985
  H         8.3673917236        1.0362382327       17.6805149827
  O         6.4049955069        0.5835076029        9.7045469940
  H         7.1779826182        1.1684651788        9.4752903511
  H         6.5804066440        0.2776312678       10.6348552105
  O         2.8779288449        6.1275367443        5.9875790539
  H         2.7872000610        6.2257817914        5.0029990282
  H         1.9713240892        5.8213170973        6.3052039320
  O         3.3626739321        6.4227982814       18.5358284248
  H         3.2049039761        7.3193880513       18.1502670191
  H         2.6390966757        5.9051439109       18.1012221525
  O         6.8798167916        7.2191007152       12.1382368816
  H         7.6680176627        6.7577627788       11.7276941700
  H         6.1136774222        6.7574626148       11.7720516742
  O         7.4758539698       10.2996571258        5.1126593111
  H         6.5535446488       10.1601921859        5.3761403515
  H         8.1837160735        9.7596102350        5.5595765252
  O         3.1150131791       10.1862504343       14.5672968504
  H         2.8555752311        9.3893192202       14.0606593664
  H         3.8468513925        0.4103496854       14.0338964176
  O         0.1891052231        7.5468708310       16.2255468663
  H         9.4740827861        7.3979170510       16.1402210696
  H         0.4729973552        7.5595757272       15.2708573851
  O         1.5421735481        8.8547133941       20.2257421277
  H         1.1499332185        9.6817711182       20.6590313570
  H         0.8453792357        8.1681073367       20.4757388996
  O         4.3672737695        6.7386451137       15.3428867915
  H         5.2573198014        6.4116669974       15.4620620454
  H         4.2570000991        7.5035267393       15.9205141574
  O         3.3911259736        8.7128319203        7.1747105010
  H         2.8978526432        9.4940324547        6.8443126765
  H         3.0850543257        7.8844154951        6.8083933272
  O         4.9359130113        5.1769837406       11.4480141284
  H         5.7426975402        4.7587883992       11.8011866712
  H         5.0213386451        4.9833950885       10.4459797450
  O         9.5330422303        9.0616333815        6.5549920654
  H         9.4549008406        8.0462248317        6.4343294924
  H         0.0039005452        9.5427985090        6.0400486454
  O         1.1335158499        2.8793779612        5.7743391640
  H         1.2015499463        3.5856390059        6.5285947244
  H         0.9725856095        3.1900241315        4.8837789712
  O         0.8013022511        9.6819318839       17.7185870269
  H         1.1570396513        9.3586300617       18.6151079833
  H         0.7651794054        8.9068846677       17.0844697625
  O         9.5449429844        4.4901100654       20.9393738570
  H         9.6668570321        5.5095887936       21.0930850800
  H         9.6854264764        4.0440399541       21.7656565473
  O         5.8132803400        2.0313768093       21.2384100619
  H         5.9039256676        2.9954792389       21.1468767218
  H         4.9241964764        1.9720626171       21.6745963597
     274
 i =       60, time =       60.000, E =     -4259.2088925104
 Cu         9.9047311021       -0.0803367468       25.6542480338
 Cu         2.1955637089        2.4723549451       25.6661016903
 Cu         9.9472903926       10.1715240845        2.8764828730
 Cu         2.3561435158        2.4190386524        2.9746289393
 Cu         2.2123008825       10.1326176661       25.7867231008
 Cu         9.9245386847        2.4797408323       25.8185844242
 Cu         2.2053838949       10.0027120866        2.8010737800
 Cu         9.9092610467        2.4745323093        2.7451153510
 Cu         3.4100655886        1.2928084526       23.9476118031
 Cu         0.7479462042        3.9128131401       23.9305397582
 Cu         3.6035715987        1.0490636794        1.2238947204
 Cu         0.9994652846        3.8609550107        1.0224667841
 Cu         0.8032901148        1.2650837429       23.8543209700
 Ag         3.4826170764        3.8953510645       23.6345210039
 Cu         1.0766767630        1.3455124359        1.1921825363
 Cu         3.4731889129        3.6874459110        1.1436475900
 Cu         4.6978775872       10.1789639705       25.8211267778
 Cu         7.4130677090        2.4479303370       25.8204010027
 Cu         4.5957767445       10.1561039512        3.0555467143
 Cu         7.4286543064        2.5646350436        3.0895948306
 Cu         7.2237459523       10.2110273131       25.7126308503
 Cu         4.7987008163        2.4377750658       25.7860926337
 Cu         7.1541899063       10.1165469093        2.9992233344
 Cu         4.7112013662        2.3524466664        2.9647889540
 Cu         8.6131738815        1.3266681414       24.1174018155
 Cu         6.1525755661        3.6373613485       24.0174643955
 Cu         8.6252406297        1.2507925290        1.1519455048
 Cu         6.0124547579        3.7078895663        1.2344828371
 Cu         5.8894417320        1.2436326824       23.8978223030
 Cu         8.6245800684        3.7978010705       24.1033762771
 Cu         6.0520283863        1.1295164849        1.2192391819
 Cu         8.7228820999        3.8729072271        1.1310153032
 Cu         9.9072275884        4.9993981912       25.7911456294
 Cu         2.2220359977        7.6605130202       25.6370698965
 Cu         9.8728840375        5.0468075576        2.9829082376
 Cu         2.1418925436        7.5860823996        2.8662886831
 Cu         2.2025148563        5.2156083763       25.7270097055
 Cu         9.8225001664        7.6452115113       25.6372943653
 Cu         2.0320835857        5.0411541965        2.8985941088
 Cu         9.8821841577        7.6363494809        2.8391662885
 Cu         3.3458097126        6.3775760821       23.8259323241
 Cu         0.8558927037        8.8493458947       23.9612729752
 Cu         3.5000992319        6.2066666426        1.1381518277
 Cu         0.7637123496        8.7804883873        0.9819455485
 Cu         0.8676196083        6.3450240063       23.8454830457
 Cu         3.4656516403        8.9353481640       23.8033841577
 Cu         0.9586957496        6.3651094742        1.0708274239
 Cu         3.4027342046        8.8104568444        1.0845555235
 Cu         4.7706091395        4.9872096390       25.7796398118
 Cu         7.2745203503        7.5218596102       25.7079166761
 Ag         4.8358286159        4.8303515401        3.3956621709
 Cu         7.3535425136        7.6993206917        2.9969935609
 Cu         7.2626353237        5.1258906316       25.8953467948
 Cu         4.6762101983        7.5204236864       25.5846573155
 Cu         7.3993384208        4.9827780772        2.9964319348
 Cu         4.8258384814        7.5412936587        2.8338488306
 Cu         8.6180637800        6.2361576238       24.0669885300
 Cu         5.9142312474        8.9088414898       24.0810093963
 Cu         8.6135203276        6.3678866979        1.1572249349
 Cu         5.9870583395        8.9134520079        1.1811164018
 Cu         5.9773598533        6.1751292036       23.8946269424
 Cu         8.5360754481        8.9241127452       23.9332867284
 Cu         6.1143126879        6.2809537315        1.1758703756
 Cu         8.4856140922        8.9518361031        0.9894274923
  O         5.7024749271        6.7758289968        6.1850263343
  H         5.9090692582        6.8697028984        5.2021347170
  H         4.7076815027        6.8261356574        6.2137618610
  O         9.1548100058        6.4526001122        6.1317840804
  H         8.5724325127        6.5352766622        6.9290630299
  H         8.6200074300        6.1420768620        5.3726355990
  O         1.5861753677        1.4340877381       16.0703026668
  H         1.3094602955        0.6987511279       16.7841921391
  H         2.0899653176        0.9782061018       15.3503453542
  O         4.8577800722       10.0850084148        5.1751549204
  H         4.1868984199        9.6544656409        5.7700273651
  H         4.7579421503        0.7977757538        5.5225162036
  O         1.5791692498       10.4995270143        5.7383409408
  H         1.3557240321        1.2340330022        5.7659032240
  H         1.3882551799       10.2899965785        4.7639697012
  O         6.9979846908        4.0519227981       12.7647246344
  H         6.7936906402        3.4980941386       13.5669234915
  H         7.6084237165        3.6935122147       12.1014979943
  O         1.1691752811        5.4031065738       17.1772372416
  H         1.4358036128        4.8521150169       16.4261722905
  H         0.6993246658        6.1760476069       16.7416782803
  O         8.3950016033        0.8663226762       20.6770854314
  H         8.3521850282        0.6505894442       19.6626617304
  H         7.4720330754        1.1668466442       21.0582426395
  O         6.6989680986        4.4976046141       20.6637610315
  H         7.6851238613        4.3759902829       20.7422492670
  H         6.4827787067        4.6204346235       19.6478089230
  O         2.7126618860        7.8043985855       13.2767338533
  H         3.2425374901        7.1630464622       13.8371777722
  H         2.9886258727        7.8211537334       12.3677563024
  O         8.0203554965        2.4892743273       16.9633531100
  H         7.5698115393        2.6291196957       16.0500655579
  H         8.4281566917        3.3410054064       17.2890726191
  O         0.7206092282        1.1097315263       21.5511953605
  H        10.1482626416        1.4864327921       21.1839302794
  H         1.4671416085        1.6732976971       21.2124211509
  O         5.9238821580        4.6424794661       18.2177803071
  H         5.0740953339        5.1602879569       18.2520938803
  H         6.4157735143        5.0545762202       17.4335622835
  O         8.1249694339        2.5323548218        8.6668768771
  H         7.3420006036        3.3094043500        8.7897177936
  H         8.4474161112        2.4005254512        7.7357919291
  O         7.0416902686        6.2252540891       16.0903219081
  H         7.5113863440        7.1224264276       16.0916897749
  H         7.6275513131        5.7450064387       15.4082277585
  O         9.1450512745        3.7270614285       10.9510628753
  H         8.8865862865        3.2293441015       10.0965692099
  H         9.7601947452        3.2061483950       11.3821213584
  O         3.6095394852        8.8135450108       16.7668855575
  H         3.5537795053        9.6819155783       16.1949822705
  H         4.2434319784        8.9943511881       17.4746212046
  O         6.1521617307        4.4157150163        8.8476286953
  H         6.4837913952        5.3715349086        8.6162096188
  H         5.9260002658        4.0824596103        7.9221627037
  O         8.5428904101        2.4506386541        6.1467299902
  H         8.2751192877        1.5547159975        5.8147380448
  H         9.4730482991        2.5324104968        5.7873884370
  O         5.0757701269        1.1505694461       13.2045712631
  H         4.6682731636        1.5103743416       12.3947629435
  H         5.8709857861        0.6651810610       12.8067239942
  O         3.4213436764        7.9595712769       10.4670649924
  H         4.3139282792        7.9587859024       10.0592091180
  H         3.0709623652        8.8675610424       10.4034225451
  O         4.1181218011        8.8887519653       20.8950577019
  H         4.4532882895        8.9254537390       21.8188915813
  H         3.1406604675        8.6123966166       20.8842896548
  O         9.8298832475        7.0117587523       20.9269281603
  H         9.0819234704        7.2184004659       20.2404544313
  H         9.6302954593        7.3849067940       21.7682473402
  O         2.7357484938        4.2122601530       13.0726457050
  H         3.4708620065        4.4417913794       12.4141607967
  H         3.2254000639        4.2552029275       13.9219856218
  O         9.1385981094        6.3097983234       10.8723401795
  H         9.2517754637        5.3292713033       10.7917970030
  H         9.8387565758        6.7923232672       10.3281802000
  O         4.0177340983        4.1409250233       15.9263347454
  H         3.9158708580        5.1329229104       15.8619378406
  H         3.5180494530        3.6867319083       16.6501750980
  O         2.8838417476        5.5258617373       21.0502773801
  H         2.0160210617        5.8830246448       21.3230950185
  H         3.1309418104        5.9420802953       20.1527117880
  O         9.0317893308        4.5393565128       18.3395884712
  H         9.9085238583        4.6992988631       17.9327378370
  H         9.1893793080        4.3237689502       19.2589161237
  O         7.0954777584        9.9313943564       12.0663455965
  H         7.7830297949       10.0218141692       12.7641683364
  H         6.9700908803        8.8828397162       11.9914368969
  O         3.2902317081        2.3526336301       18.0390141692
  H         2.8064522127        1.8835913181       17.2932714668
  H         4.1506525782        1.9054650129       18.0964092566
  O         0.6745694585        5.0917120022        7.7561294973
  H         0.8092576478        5.9283953869        8.3306714397
  H         0.0339146331        5.4345296211        7.1492170870
  O         8.9047149078       -0.3722812208       13.9884916726
  H         9.4329565737        0.5032284579       14.0248523017
  H         9.4711894985        9.2187537513       13.4697836355
  O        -0.2746382852        9.8574377782        9.0840419508
  H         9.5727658381        9.5534104160        8.1771079844
  H         9.1692374358       10.2959294866        9.4937103086
  O         0.1264933385        7.7328719624       13.4329404005
  H         1.0847702508        7.5604460833       13.1667833177
  H         9.9659497809        6.8070892925       13.3738141506
  O         5.5280671272        8.3658265353        8.8769804783
  H         4.8127673132        8.4845228129        8.2013930254
  H         5.9408654254        9.2383184549        9.0303246854
  O         2.5094325290        2.7968569444        8.6163628460
  H         3.2101728499        2.6401676656        7.8943298257
  H         1.9110222582        3.5116317676        8.3388897932
  O         5.9316150182        6.6284668194       21.8406989880
  H         4.9512192440        6.4767614551       21.7753314889
  H         6.2711516450        5.7717766753       21.3408839591
  O         7.8751429026        8.7009235480       16.2477612629
  H         7.9866249319        9.1021357885       17.1050588287
  H         8.2444815130        9.2722182932       15.4845523285
  O         5.7549819806        1.3267614301       18.4761799921
  H         5.7349522586        1.4532188190       19.4656773136
  H         6.4316669736        1.9696229022       18.1075318404
  O         2.0764716553        0.2480262242       10.6365280209
  H         1.4217511433        0.5573425318       10.0141614952
  H         2.9489452586        0.8168322864       10.6216814106
  O         2.7554432140        2.6635553179       20.6134422863
  H         2.7379176971        3.6343890756       20.6099975619
  H         2.9250088201        2.4877809309       19.6504056651
  O         7.7504729634        6.6665307150        8.5611917624
  H         6.9358852338        7.2415462297        8.5081093164
  H         8.0064019522        6.6405806431        9.5432445894
  O         1.1648186278        7.2365826925        9.2072716744
  H         0.7659198244        8.1252711755        9.0866281313
  H         2.1315190439        7.3823709116        9.4415202505
  O         1.1146050619        2.3676721541       12.2631486258
  H         1.4891251749        1.5042992998       11.9724817928
  H         1.8624625668        2.9117712011       12.5969502928
  O         6.1361419723        2.7639459408       14.9581636421
  H         5.7736776211        2.2512295289       14.2097917856
  H         5.3138094784        3.2738786483       15.3517460849
  O         9.0039248171        5.1611941558       14.3494189424
  H         8.3828661796        4.6602737863       13.6973164982
  H         9.2827006785        4.4194265769       14.8556314765
  O         6.0118687604        8.7026750338       18.7966237920
  H         6.1721870954        9.6684405076       18.5744831449
  H         5.6608369371        8.6977037287       19.7377636405
  O         7.4870569151        8.8872866221       22.0098580086
  H         6.8557164593        8.2161771084       21.7221679770
  H         7.6957532210        9.5964853794       21.3199761597
  O         4.0362313396        2.2392534386        6.0980043153
  H         3.4066374159        2.4910406404        5.4190159230
  H         4.7481314857        2.8771385147        6.0040310703
  O         9.6380942409        2.4113323860       14.5257894748
  H        -0.0671839861        2.4794001636       13.7123522721
  H         0.1085563804        2.1058860510       15.1230874932
  O         4.2678111681        1.9627974168       10.6014994179
  H         5.0028612870        1.6434977214       10.0134853009
  H         3.7313971261        2.6343889479       10.1337378773
  O         5.9155004333        4.0259573657        5.9936300572
  H         6.8388479503        3.6537822515        5.8956404763
  H         6.0261210851        4.9983283133        6.2158277768
  O         8.3324906466        7.3216652283       18.8620241927
  H         8.2930296668        6.4054897644       18.5280366149
  H         7.4099378361        7.7904547985       18.8969304839
  O         8.5012267102        0.2877282694       18.1987191811
  H         9.4255096540        0.0133995225       18.0773846428
  H         8.3937851451        1.1044340236       17.5512482532
  O         6.4394152488        0.6294827694        9.6783790883
  H         7.0169077503        1.3118819110        9.2355288622
  H         6.9193651752        0.3702949424       10.5385655301
  O         2.8394641776        6.1648676665        5.9985747396
  H         2.6990126533        6.4113842477        5.0607766496
  H         2.0303333111        5.7819989083        6.3880174266
  O         3.3884691850        6.3131378590       18.4235234541
  H         3.2871507369        7.2422038015       18.1373522323
  H         2.5797286723        5.8412792846       18.0763269668
  O         6.9630989428        7.2927906162       12.2514236560
  H         7.7533927572        6.8970231771       11.8263285774
  H         6.2128189416        6.6981718568       11.9190273821
  O         7.4511961035       10.3166582049        5.2040073046
  H         6.4774012615        9.9944094975        5.3977381973
  H         8.0312749001        9.6382877666        5.6808328611
  O         3.1528662995       10.1393891642       14.5819432330
  H         2.9573462006        9.2991842091       14.0261934542
  H         3.9218770429        0.3956073096       14.1591827655
  O         0.1904067717        7.5613143916       16.1736528763
  H         9.4791939171        7.9998085755       16.3922692075
  H         0.3098937225        7.7572137555       15.1995704935
  O         1.5624258791        9.0241414795       20.2163773474
  H         1.2146962636        9.8133236423       20.6699422277
  H         0.9258922188        8.3273037097       20.4797083428
  O         4.3157901969        6.7048315120       15.3280087630
  H         5.3451133508        6.7145552998       15.2091116196
  H         4.0606362791        7.5075936744       15.9298907341
  O         3.2793959172        8.7571037795        7.1902968192
  H         2.4648540437        9.2780027848        6.9727792005
  H         2.9935212909        7.8806298597        6.7188466771
  O         4.8834950448        5.1927824525       11.3551534006
  H         5.4879986134        4.5767317576       11.9429156884
  H         4.9342401561        4.7078413201       10.5472715052
  O         9.5306750761        9.0725831213        6.6058341844
  H         9.6133217610        8.2253619010        6.1392618804
  H         0.1654949766        9.5837952504        6.4084880020
  O         1.1035444133        2.8538590223        5.7057142681
  H         1.0716328304        3.5478073245        6.3360118293
  H         1.0768656124        3.3555515299        4.8156610214
  O         0.7802537006        9.5986625774       17.7155332333
  H         1.2835364778        9.2634612180       18.4798991201
  H         0.5443091549        8.8123397016       17.1576034633
  O         9.5281508716        4.4835403525       20.9112707516
  H         9.6726961854        5.4594751669       21.0937803670
  H         9.6863763370        4.0026249798       21.7970699202
  O         5.8555863082        2.0020591587       21.1789110553
  H         6.0767518083        3.0405002926       21.0589327466
  H         4.9064691023        1.9628422059       21.4760219746
     274
 i =       80, time =       80.000, E =     -4259.1997617328
 Cu         9.9071451010       -0.1113108954       25.6750796708
 Cu         2.1808381361        2.4632510187       25.6901750373
 Cu         9.8721859126       10.1828940598        2.9026234672
 Cu         2.3049971303        2.3665814289        2.9791801229
 Cu         2.2090689977       10.1779259899       25.6800546268
 Cu         9.9315113340        2.4610245598       25.7837808887
 Cu         2.2650965066       10.0511299379        2.7656822253
 Cu         9.9865756119        2.4379807004        2.8257068716
 Cu         3.4756723653        1.2830648835       23.8955488411
 Cu         0.7408797323        3.9241715916       23.9120410149
 Cu         3.5988988257        1.0218995045        1.1754824219
 Cu         0.9895642274        3.8098448553        1.0639211504
 Cu         0.8581309002        1.2466964140       23.9095577803
 Ag         3.4973084596        3.9092929373       23.6592443416
 Cu         1.0264241575        1.3207415685        1.2139386932
 Cu         3.4384251546        3.7356642497        1.1003335519
 Cu         4.6887795943       10.1390210273       25.8114052755
 Cu         7.3968742251        2.4677000413       25.8141752863
 Cu         4.6032843780       10.1241312659        3.0648884253
 Cu         7.4575800735        2.5692889498        3.0545233517
 Cu         7.2330023657       10.2218674482       25.7312555160
 Cu         4.7249335510        2.4253051765       25.7817035310
 Cu         7.1659376649       10.1409639947        3.0200342471
 Cu         4.7106673492        2.3572086834        3.0343284181
 Cu         8.5837203640        1.3099458010       24.1353007598
 Cu         6.1882878715        3.6201617679       24.0086163906
 Cu         8.5781032919        1.2451179748        1.1887667754
 Cu         6.0641365049        3.6925935510        1.2310150184
 Cu         5.8900095852        1.1672213644       23.8511460650
 Cu         8.6295774640        3.8401848548       24.0747605347
 Cu         6.0196124165        1.1283970430        1.1973446917
 Cu         8.6805726596        3.8045601016        1.1138907960
 Cu         9.9258687885        5.0023358715       25.8112318005
 Cu         2.1501772201        7.6457217760       25.6400255569
 Cu         9.8877510969        5.1487622532        2.9705719081
 Cu         2.1390318230        7.5920570434        2.8771173120
 Cu         2.2244785419        5.1928707735       25.7300378807
 Cu         9.8636315729        7.6268424167       25.5966327291
 Cu         2.0277384108        5.0270715121        2.8976408111
 Cu         9.8996895858        7.5832858455        2.8145040370
 Cu         3.3461683753        6.4299106166       23.7902685946
 Cu         0.9255489750        8.8196663067       23.9345008541
 Cu         3.4843486386        6.2278875253        1.2081640558
 Cu         0.7719894537        8.8638656256        0.9499666913
 Cu         0.9346762673        6.4092417124       23.8271785943
 Cu         3.4744245766        8.9368001977       23.7952286508
 Cu         0.9100537058        6.2967014797        1.0551956816
 Cu         3.4130800807        8.7729687783        1.0944126402
 Cu         4.7498767217        5.0251700485       25.7640923511
 Cu         7.2419887983        7.5139129087       25.7344829149
 Ag         4.8271810938        4.8802125854        3.4021399021
 Cu         7.3755377530        7.6983801032        2.9187588437
 Cu         7.2673266736        5.1378534578       25.9039737302
 Cu         4.6666096052        7.5328739456       25.5971839257
 Cu         7.4136540816        4.9900398853        3.0564286565
 Cu         4.7778630734        7.4782958758        2.8739293163
 Cu         8.6479559186        6.3300963341       24.0620440894
 Cu         5.9212016056        8.9071089764       24.0822360383
 Cu         8.5762751944        6.3478321766        1.1433566637
 Cu         5.9288812619        8.9163255580        1.1735070495
 Cu         6.0394424543        6.1724198973       23.9162370461
 Cu         8.5452297658        8.9051670093       23.9463622975
 Cu         6.1114132454        6.3742561972        1.1309309838
 Cu         8.4854325223        8.9202342158        0.9689467940
  O         5.7252826921        6.7688554481        6.1799948384
  H         6.0444251485        6.8750510592        5.2684432180
  H         4.7648754644        6.6861480639        6.1012046074
  O         9.1263377889        6.4693073311        6.2356829793
  H         8.5090291898        6.4705524146        7.0583048375
  H         8.6387160371        6.2139935814        5.4231222148
  O         1.4974408183        1.4430882935       16.1071114424
  H         1.1989234840        0.6337387254       16.4701846888
  H         1.9968848368        1.1882296842       15.2724880963
  O         4.8087721558       10.2104528682        5.1730940059
  H         4.1157991508        9.5461102931        5.4666863800
  H         4.4918961875        0.9029714004        5.5601526692
  O         1.5549245302       10.5259391580        5.7006938147
  H         1.6220260234        1.3038767823        5.7546349083
  H         1.2078719834       10.3211906460        4.8178571590
  O         6.9867452622        3.9797087759       12.7765958074
  H         6.6180954425        3.4668109160       13.5222779997
  H         7.5716708194        3.4121193294       12.1820883382
  O         1.1621390298        5.5196127446       17.1258936960
  H         1.3540200346        4.9224263193       16.3886825562
  H         0.7368983334        6.3516180197       16.6941454456
  O         8.4113403171        0.8038793525       20.8674893742
  H         8.4939399960        0.7143695467       19.8495187614
  H         7.6749706265        1.3983282930       20.9282503047
  O         6.6853205056        4.4237273904       20.6710777322
  H         7.6902893292        4.5244307814       20.9014219508
  H         6.4319233302        4.5350976734       19.6899677473
  O         2.7140552668        7.7491867247       13.3385719635
  H         3.3063421741        7.1255050022       13.8684963535
  H         3.0193386458        7.6867713086       12.3559874195
  O         7.9990334931        2.4624127567       17.0613510225
  H         7.6898299566        2.5662105349       16.1611034450
  H         8.4886891072        3.2298733692       17.4795589556
  O         0.8904766946        1.0570919180       21.6020040245
  H        10.1280611234        1.1330386081       21.3258081054
  H         1.4409820119        1.8284662004       21.2744649579
  O         5.8456758014        4.7363978712       18.2038250280
  H         5.0543374527        5.3137874903       18.1071097738
  H         6.4832578326        5.1154049299       17.5810325111
  O         8.0952859105        2.4414720157        8.7840781745
  H         7.6221354618        3.2648460677        8.7802753967
  H         8.4706103625        2.4573146508        7.8098469579
  O         7.0937871224        6.1837745408       16.0233052481
  H         7.3665506911        7.1189169955       16.1112223043
  H         7.8536999395        5.7854599655       15.5504424684
  O         9.0742446876        3.7404235530       11.0139300192
  H         9.0005425763        3.2718332960       10.1425746819
  H         9.9505281054        3.2729839977       11.4931785199
  O         3.5680616798        8.8943120171       16.7625645518
  H         3.5178109044        9.3574590645       15.9342015748
  H         4.4199040660        9.2648687877       17.0717139246
  O         6.2714960615        4.3555827670        8.7956172403
  H         6.7737098159        5.2203503805        8.7426830708
  H         5.9656901633        4.2559654240        7.8665463880
  O         8.5060884730        2.5352896731        6.2360643354
  H         8.1558987409        1.6303152317        5.9591944898
  H         9.3989739778        2.6136685824        5.8221514974
  O         5.0598203651        1.0078773579       13.1532064042
  H         4.6920381714        1.4830746743       12.3248904738
  H         5.7456912867        0.3861615317       12.8576729368
  O         3.3789044837        7.9355928924       10.5512754601
  H         4.2559138106        8.0065271697       10.0624869376
  H         3.0373381403        8.8929604390       10.5331666368
  O         4.0807040478        8.7721695479       20.9511635083
  H         4.2923021125        8.8052860063       21.9193187689
  H         3.1256493047        8.9440127659       20.6972523840
  O         9.8690188797        6.8706167214       20.8325683400
  H         9.1570966395        7.2628478696       20.1689959070
  H         9.4922294069        7.3014797767       21.7038439859
  O         2.8328994322        4.2802105980       13.0464286568
  H         3.4702133780        4.4718221701       12.2998314524
  H         3.4468419753        4.0726953929       13.7790356098
  O         9.0979649976        6.2682935720       10.8175197234
  H         9.1820088575        5.2692613999       10.9707968990
  H         9.9994422636        6.5806151729       10.6610136849
  O         3.8984417220        4.0430161282       15.8585610809
  H         4.1282546834        5.0376228164       15.8863261637
  H         3.8751696358        3.9086744260       16.8292965152
  O         2.9337863816        5.6002003820       21.1036840994
  H         2.2562287270        6.2655406950       21.3583608148
  H         3.0739954637        5.8005737008       20.1654639813
  O         9.0639461468        4.5078923643       18.3164517605
  H         9.9724076263        4.7793621060       17.9700133101
  H         9.1873735186        4.1713550408       19.2661724920
  O         7.1244776533        9.9418343601       12.1005233207
  H         7.9220602644        9.8955038462       12.7522289418
  H         6.9177624157        8.9936113644       12.2427699126
  O         3.2073859206        2.3847330776       18.0363499891
  H         2.7259799893        1.8399192375       17.3591129027
  H         4.1340616558        1.9210035860       18.0865289327
  O         0.6815485863        5.0702226463        7.7707973004
  H         0.9154196342        5.9022848691        8.2468350333
  H         0.0228386603        5.3640867852        6.9955809782
  O         8.9234344299       -0.4519778276       13.8901991072
  H         9.2145201443        0.4237350275       14.1288834762
  H         9.6303285207        9.0725890976       13.7799688579
  O        -0.4086719466        9.9091342754        9.0889629413
  H         9.3517769625        9.6101509678        8.2716467385
  H         9.0637850016       10.2325597467        9.5958917396
  O         0.1153549659        7.6612804020       13.5099088342
  H         1.1209738495        7.6614141663       13.4395895645
  H         9.8893134478        6.8064339700       13.4226240711
  O         5.6419420130        8.4727997378        8.7908617390
  H         5.0232637937        8.7018742463        8.0419659947
  H         5.8930381653        9.3526494573        9.2465021141
  O         2.6236699598        2.8826892175        8.5492595229
  H         2.9248347666        2.5878043064        7.6731369834
  H         1.8246618545        3.4742657415        8.5769519860
  O         5.8693452475        6.5369525464       21.8786296408
  H         5.0327434994        6.7994553112       21.4370677855
  H         6.1566226975        5.7108642031       21.3705510505
  O         8.0607552968        8.7610282718       16.2571501906
  H         7.9225935056        9.3276410404       17.1163921290
  H         8.1559671362        9.2837833669       15.4321966634
  O         5.7107434064        1.3397964288       18.5759165833
  H         5.8197690319        1.6362732149       19.5421937506
  H         6.3007115793        1.9104511896       18.0370711823
  O         2.1085718762        0.1842226406       10.6542751619
  H         1.4412482338        0.4278093969        9.9427708059
  H         2.8585232102        0.7317288494       10.4651057482
  O         2.7097805791        2.5608027115       20.5998706903
  H         2.9148511452        3.4843697319       20.9241058235
  H         2.6761269814        2.5038231702       19.5571268064
  O         7.6930430845        6.6431171511        8.5457715468
  H         7.1102035504        7.4639710017        8.6338152542
  H         8.2928569195        6.5944104185        9.3808228563
  O         1.1923183082        7.2795659692        9.1532513735
  H         0.7652674170        8.1699719105        9.1324814797
  H         2.0465463074        7.4836272040        9.7319041035
  O         1.0731428521        2.3331512811       12.3000167359
  H         1.4720900366        1.5631743587       11.7958170746
  H         1.7871176268        3.0290999459       12.5710388786
  O         6.1073355937        2.7288084552       14.9204044423
  H         5.5291098057        1.9739701876       14.6254401378
  H         5.4642006881        3.2356925252       15.4636551150
  O         8.9856678927        5.2379425973       14.3685436814
  H         8.2758319422        4.9593439039       13.7780570662
  H         9.6012673093        4.4286915916       14.4495159940
  O         6.1130920587        8.8184887421       18.7759725619
  H         6.1853734040        9.8274490472       18.6050022612
  H         5.3418058149        8.7769591583       19.3860776610
  O         7.4762991644        8.9723387597       22.0142821982
  H         7.1174912289        8.1013129125       21.6737798571
  H         7.8316014631        9.6326010106       21.3541886779
  O         4.0615624458        2.2308538715        6.1120225640
  H         3.5859291831        2.2858759883        5.2000545552
  H         4.7950607720        2.9820239043        6.1297476530
  O         9.5617620320        2.2319413387       14.5750947175
  H        -0.1304552036        2.4296908915       13.7223352725
  H         0.0890781787        2.0894897113       15.2470622828
  O         4.2530148266        2.0549659896       10.6114035176
  H         5.0409225039        1.6815336595       10.1327119388
  H         3.6278197707        2.5362404032        9.9927143572
  O         6.1076331632        4.0069186991        5.9645325290
  H         6.9973234753        3.7076899897        5.6873667152
  H         5.9214119372        4.9715450789        5.9306892775
  O         8.3449521008        7.3070885527       18.8672119635
  H         8.3884759554        6.3802081737       18.5007978537
  H         7.3993690395        7.5652614147       18.7943430384
  O         8.5094385856        0.3100374867       18.2081223482
  H         9.4977375457        0.0106019266       18.0415404899
  H         8.4931049006        1.2282580126       17.7118402445
  O         6.4786615868        0.6782132355        9.6060719100
  H         7.1283596435        1.2722267348        9.0585689105
  H         6.8949829534        0.5086468192       10.4848356658
  O         2.8304315737        6.2833611498        6.0239311000
  H         2.3540303097        6.1884417397        5.1382638179
  H         2.2001019152        5.8388415204        6.6743508008
  O         3.3855359374        6.1736610441       18.3871816979
  H         3.6177791237        7.0800725693       18.1151161241
  H         2.5656225236        5.9354648287       17.8383408433
  O         7.0073808996        7.3612938582       12.3328965757
  H         7.8704596830        7.0893177529       11.9205651520
  H         6.3633490898        6.6964374907       12.0962056287
  O         7.4277638843       10.2857624920        5.3046318049
  H         6.5223443888        9.9799697686        5.5628015282
  H         8.0979832067        9.6821313581        5.6974185798
  O         3.2017446114       10.1228317193       14.5580471946
  H         3.0263350670        9.3092035852       14.0581022138
  H         3.9441683476        0.3071353365       14.0187207293
  O         0.1183452355        7.6505666347       16.1025558376
  H         9.4236964608        7.8427725874       16.3001395765
  H         0.0614622515        7.5718527332       15.1050779821
  O         1.5443318297        9.1301088740       20.2544102526
  H         1.3292179098        9.9787022245       20.8231450970
  H         0.8779863076        8.4068398609       20.4603563649
  O         4.2671103654        6.6780816396       15.2401557719
  H         5.2178201278        6.7173971917       15.3378275851
  H         3.9685193241        7.5047613191       15.8227396172
  O         3.1547058210        8.7713895667        7.0760305459
  H         2.3548936852        9.3143803386        7.2155418232
  H         2.7839971459        7.8861534930        6.9652453491
  O         4.8200856728        5.1212818648       11.3605778555
  H         5.5510581642        4.7786431895       11.8586945188
  H         5.1284328468        4.8586686537       10.4146911882
  O         9.5350774594        9.1393233534        6.5505435513
  H         9.7331343858        8.1573363502        6.3458401269
  H         0.1413937808        9.5879041245        6.2310744858
  O         0.9719969183        2.9468531844        5.6280089662
  H         1.1088266866        3.6810853300        6.3770489955
  H         1.3269080020        3.4814572316        4.8196142940
  O         0.7340337810        9.5963785634       17.7157751601
  H         1.2009857426        9.5320565799       18.6117072902
  H         0.9752469855        8.8112250771       17.1809814346
  O         9.4414683710        4.3832165657       20.9359249285
  H         9.7641840580        5.3075709895       20.9798931724
  H         9.7642159696        4.0321772239       21.7680819742
  O         5.8625903729        1.9799440446       21.1102620420
  H         6.2115902908        2.9105367348       21.0921888103
  H         4.8909768173        2.0042691542       21.1333344971
     274
 i =      100, time =      100.000, E =     -4259.1997844638
 Cu         9.8851232648       -0.1037907814       25.6944320704
 Cu         2.1753082928        2.4723936487       25.7161918149
 Cu         9.8034130730       10.1709004451        2.8975629176
 Cu         2.2517079861        2.3445619010        2.9640142634
 Cu         2.1954585547       10.2264432432       25.5732899345
 Cu         9.9453122070        2.4458541120       25.7531134769
 Cu         2.2514682698       10.1003599367        2.7507328687
 Cu        10.0469539796        2.4390199996        2.9369804410
 Cu         3.5293300926        1.2435511423       23.8594129849
 Cu         0.7843532017        3.9190837258       23.9028753476
 Cu         3.5545155967        1.0572624344        1.1145505322
 Cu         0.9793239076        3.7416775627        1.1252946665
 Cu         0.9326529149        1.2289319603       23.9442107901
 Ag         3.5106820034        3.9068630345       23.6936377406
 Cu         0.9684286588        1.2406500676        1.1908766512
 Cu         3.4235231058        3.7708077331        1.0680857558
 Cu         4.6939853453       10.0886516697       25.7485281725
 Cu         7.3389739552        2.5103952652       25.8155724031
 Cu         4.6509544024       10.0678467060        3.0773394125
 Cu         7.4626629923        2.5562623078        2.9851527239
 Cu         7.2472997287       10.2146294021       25.7422845569
 Cu         4.6682540931        2.4290349262       25.7719459108
 Cu         7.2191582472       10.1805719132        3.0440528982
 Cu         4.7388893199        2.3638519544        3.0645758254
 Cu         8.5377003552        1.2783538619       24.1116175435
 Cu         6.2149714013        3.6215825494       24.0165735809
 Cu         8.5326208008        1.2152408268        1.2261713675
 Cu         6.1104046234        3.6842637478        1.2254763429
 Cu         5.9156128278        1.1022941046       23.8284780399
 Cu         8.5955386240        3.8763847743       24.0464127391
 Cu         6.0086662088        1.1645653185        1.1889436219
 Cu         8.6165266711        3.7290493070        1.1265438840
 Cu         9.9276034818        5.0410567469       25.8068479053
 Cu         2.0995854389        7.6265590884       25.6607661952
 Cu         9.8856277896        5.2203749239        2.9506515793
 Cu         2.1457117298        7.5870218835        2.8805652706
 Cu         2.2503421639        5.1318794649       25.7111209809
 Cu         9.8861665952        7.5930618994       25.5967872298
 Cu         2.0680849351        4.9986896768        2.9069403069
 Cu         9.9051752682        7.5646061218        2.7996996275
 Cu         3.3650949657        6.5052733672       23.7750234188
 Cu         0.9989919044        8.8259218488       23.8811616012
 Cu         3.4723475226        6.2580737489        1.2624272057
 Cu         0.8217670813        8.9569635052        0.9761285167
 Cu         0.9858492699        6.4413515324       23.8207827778
 Cu         3.4646180372        8.9479103734       23.8326235321
 Cu         0.8676739323        6.2568521928        1.0498798699
 Cu         3.4321553242        8.7173884246        1.0948273308
 Cu         4.7384700640        5.0598435477       25.7556400979
 Cu         7.2095036817        7.5595020511       25.7425214435
 Ag         4.8048187428        4.9388754187        3.3892553764
 Cu         7.3854859121        7.6614508977        2.8323498851
 Cu         7.2814195652        5.0849156274       25.8549379402
 Cu         4.6613266249        7.5408704632       25.6452319671
 Cu         7.4362861028        5.0348316036        3.0871905286
 Cu         4.7231422277        7.4463148382        2.9218560261
 Cu         8.6630363288        6.3947872770       24.0375851452
 Cu         5.9495371257        8.9065336981       24.0625339867
 Cu         8.5548471476        6.3332976395        1.1363366903
 Cu         5.8840179858        8.8991123479        1.1647980421
 Cu         6.0937400109        6.1740921188       23.9449852438
 Cu         8.5479672466        8.8873948868       23.9540957192
 Cu         6.0610375779        6.4512525143        1.1260732341
 Cu         8.4977254968        8.8892748939        0.9951093008
  O         5.7507669403        6.6976221776        6.1065220048
  H         5.9764665130        7.2419236900        5.2934642136
  H         4.7539409801        6.5817586499        5.9679851294
  O         9.0916556082        6.4572208823        6.3847275694
  H         8.2600599575        6.5606420641        6.9407098458
  H         8.8062339577        6.3887948314        5.4214244256
  O         1.3821058787        1.4632077919       16.0864245726
  H         1.2138166468        0.6900482319       16.8088793078
  H         2.0706303806        1.0066988482       15.5582418279
  O         4.7070645695       10.1735372474        5.2217904142
  H         4.1698121762        9.4988088864        5.6890937267
  H         4.4649169306        0.8268229796        5.7024006908
  O         1.4757135920       10.5492613928        5.6884476142
  H         1.2672039560        1.2674373754        5.8135122567
  H         1.4282475034       10.4160886449        4.6643368285
  O         6.9584846344        3.9859397538       12.8096610420
  H         6.6239877930        3.3113933407       13.5500838660
  H         7.5435080106        3.4503683555       12.2706173004
  O         1.1218473845        5.5921192153       17.0594912625
  H         1.5256495942        4.9732475129       16.3965982073
  H         0.6771660530        6.4277531685       16.6182249956
  O         8.5100973952        0.7695402066       20.9358651836
  H         8.4447129847        0.6158658569       19.9087820189
  H         7.7564237876        1.4031472084       21.1440133781
  O         6.7185966924        4.3490809690       20.6835919256
  H         7.6646390751        4.3101483996       20.7451402747
  H         6.4932593624        4.5593817862       19.7347383986
  O         2.7508594240        7.6687161292       13.3028428491
  H         3.4148888794        7.2324998171       13.8824623222
  H         3.1870775376        7.5412698718       12.4523966895
  O         7.9113235510        2.4847115283       17.1633762593
  H         7.6969785647        2.5644401667       16.1914800337
  H         8.2979934398        3.3635189590       17.4670872722
  O         0.9735335303        1.0227376607       21.7456408094
  H        10.2291441315        1.0519179648       21.5884569467
  H         1.4734733572        1.7379473604       21.0836788954
  O         5.8095038888        4.8501310457       18.1897242893
  H         4.9481302056        5.3248737825       18.2967584888
  H         6.3207039413        5.3719737815       17.4774672685
  O         8.1669509471        2.4609644565        8.9339846578
  H         7.3800180310        3.0100012787        8.7375718683
  H         8.3834380826        2.4452732203        7.9768122196
  O         7.0679672126        6.1440175719       16.0146431141
  H         7.1474551273        7.1184052378       16.2746487859
  H         7.9432852451        5.8577473478       15.5694931705
  O         9.1193252503        3.5717910481       11.1135969065
  H         8.8774820447        3.1997314437       10.2312354236
  H        10.0144162287        3.3274477724       11.3312266484
  O         3.6307115469        8.8996240206       16.7589118458
  H         3.3540716099        9.3993601276       15.9522871498
  H         4.5245657265        9.2267822797       17.0425512224
  O         6.3853859771        4.3537433046        8.7800873398
  H         6.9503103040        5.1266719748        8.7856053884
  H         6.0829144695        4.2144658595        7.8624258031
  O         8.4605739459        2.5662673894        6.2257009785
  H         7.9949983419        1.8185879714        5.7761524046
  H         9.3735558808        2.7305689307        5.8271503838
  O         5.0264569163        0.8482138733       13.0358874120
  H         4.7303163242        1.5318284373       12.4252138866
  H         5.9184394725        0.4550555252       12.7363211360
  O         3.3345756248        7.9623537551       10.6855536451
  H         4.0443008821        7.9653890571        9.9761647659
  H         2.9926862970        8.8997382676       10.6982363517
  O         4.1262000058        8.6111990604       20.9217928820
  H         4.2089733699        9.1390503144       21.7495482051
  H         3.2025032334        8.9434214562       20.7005521255
  O         9.9697812977        6.9297320865       20.8028648743
  H         9.2638069474        7.0502491879       20.0288560446
  H         9.5516023028        7.0095753667       21.6373589108
  O         2.9185731381        4.3005733272       12.9942532861
  H         3.5586417473        4.7243044649       12.3629711619
  H         3.3457412544        3.8188141817       13.7400734133
  O         9.0967635093        6.3109917005       10.7777026568
  H         9.0438698873        5.2559192757       10.8993558452
  H        10.0598667991        6.4779486350       10.8509163388
  O         3.8083581839        3.9934000756       15.8121433070
  H         4.0032162661        4.9336529751       15.7700975036
  H         3.8601947601        3.6112882491       16.7317579399
  O         3.0143219222        5.6557667889       21.0853770795
  H         2.3903820154        6.2871479907       21.4994053115
  H         3.0468824021        5.9499064855       20.1093362121
  O         9.1449523052        4.5027907295       18.2800068579
  H         9.9749027377        4.8984144893       17.8907859835
  H         9.4648509154        4.1871969046       19.1431294175
  O         7.0693136377        9.9818814176       12.1052852455
  H         7.8778434326       10.0196021248       12.6789510418
  H         6.9583531746        8.9990545476       11.9498324947
  O         3.1755455174        2.4316180941       18.0164879139
  H         2.4550878767        2.1103529318       17.4226985260
  H         3.9500248972        1.8449020146       18.1864549604
  O         0.7393431741        5.0283721945        7.6710076734
  H         0.9260520810        5.6759521838        8.4301483506
  H        -0.0652102192        5.3728670508        7.2309145298
  O         8.9261972774       -0.4130210429       13.8832365075
  H         9.2882613909        0.4944482916       14.2961483787
  H         9.6397395847        9.1119361104       13.8253587352
  O        -0.5082894183        9.9215018177        9.1381803447
  H         9.4950945317        9.8249195270        8.1740182754
  H         8.9708889624       10.0576575888        9.7559098368
  O         0.1485825685        7.5405730470       13.5432539919
  H         1.1319267935        7.3911449241       13.3423166042
  H         9.8537302891        6.6855035390       13.4704976222
  O         5.7224289204        8.6018703888        8.7761934360
  H         5.2051071552        8.6143521742        7.9718902119
  H         6.0738382291        9.5445394790        8.8585313646
  O         2.7322888339        2.9538814523        8.5186666324
  H         2.7475802068        2.7479965341        7.5748132461
  H         1.8401550305        3.5040757408        8.4966532421
  O         5.8425746297        6.5230102407       21.8271556146
  H         5.1106119289        7.0900960462       21.4783107561
  H         5.8852338697        5.6096513944       21.3963990900
  O         8.1004012834        8.8113792436       16.2869386878
  H         8.1143294545        9.6052407257       16.8043200165
  H         8.1582545367        9.2252748774       15.3552655990
  O         5.6508240847        1.3674682152       18.5690588972
  H         5.8887473690        1.6688564223       19.4821876039
  H         6.3529001288        1.7954092072       18.0032864400
  O         2.1453686800        0.1756288084       10.6665171089
  H         1.6475666460       -0.0371156339        9.8468770593
  H         2.8592033185        0.8834985463       10.3405073787
  O         2.7064298790        2.5152812615       20.6247671018
  H         2.5173224558        3.4053404471       20.9825211717
  H         2.8682829683        2.5674630250       19.6317742639
  O         7.6667207132        6.6309532768        8.5188682870
  H         6.9930560531        7.3326317352        8.6733732299
  H         8.3757045457        6.6464083889        9.1791552127
  O         1.1846246992        7.3394331950        9.1639018171
  H         0.6138294995        8.1534023696        9.2304384160
  H         1.9611404439        7.5074841107        9.6710602269
  O         0.9865527643        2.3878512223       12.3344757098
  H         1.3328408967        1.5959550760       11.8629176595
  H         1.7531598538        3.0180602783       12.4730063605
  O         6.1065229272        2.6907501724       14.9771288575
  H         5.6511271338        1.9104020048       14.5850381280
  H         5.3098789177        3.2681538645       15.2274822462
  O         8.9965456961        5.2833044440       14.2721675651
  H         8.1358835902        5.1148534755       13.7342443165
  H         9.4379452715        4.4124719292       14.3231833963
  O         6.0932864699        8.9150628087       18.7589540611
  H         6.2420184914        9.8752146698       18.8204048444
  H         5.2790812696        8.8721744090       19.3030802927
  O         7.4551705522        8.9196176986       22.1193810136
  H         7.3638526502        8.2316282857       21.4299635079
  H         7.7858144038        9.7474060251       21.6070489148
  O         4.0425270395        2.3100750783        6.1066636158
  H         3.6244639391        2.6452270794        5.3071340668
  H         4.9054008632        2.7803803860        6.0708605012
  O         9.5580667034        2.0747505922       14.5609588273
  H        -0.0672775295        1.9469318969       13.8194468729
  H        -0.0593577152        1.9361459629       15.3287283097
  O         4.1878773871        2.0666666540       10.6015631510
  H         5.0457845483        1.6619493367       10.2713868345
  H         3.9098625644        2.5462444045        9.7820052858
  O         6.2359252691        4.0118884291        6.0204049557
  H         7.1584957697        3.6813772399        5.7694975904
  H         6.1556809640        4.9506157780        5.6554235856
  O         8.3528500557        7.2311064994       18.8600173824
  H         8.2381671576        6.3914024830       18.3757152317
  H         7.5763523666        7.8284174266       18.7116980875
  O         8.6063874855        0.2830693456       18.3121860971
  H         9.4454575946       -0.1936637210       18.0299318442
  H         8.4290856060        1.0960126121       17.8204063238
  O         6.4665564242        0.6971914786        9.5865746529
  H         7.2282160887        1.2872489972        9.3339694927
  H         6.6697602778        0.3820049300       10.5246151861
  O         2.7708641925        6.3562400861        6.0983881269
  H         2.3023969871        6.0996937620        5.3011685523
  H         2.4727666044        5.6662639408        6.7261403887
  O         3.4348541438        6.0515016221       18.3639575189
  H         3.6844146486        6.9857239948       18.1866483519
  H         2.6071570004        5.9724880944       17.8288013689
  O         7.0627237907        7.3711405301       12.4270318364
  H         7.8207364981        7.0839671127       11.8577631933
  H         6.3103952066        6.8035207019       12.1259402199
  O         7.4431980164       10.2793907578        5.3693971268
  H         6.5044061976       10.0671801794        5.6536806036
  H         8.2100673060        9.7061773037        5.7453437372
  O         3.2073408032       10.0994858051       14.4786626414
  H         2.7997139650        9.3937133278       13.8874748299
  H         3.9180598562        0.2245139022       13.9125983841
  O         0.1245373648        7.6196856982       16.1007263757
  H         9.5001497603        8.1588150194       16.2915612134
  H         0.1353318148        7.5757219424       15.0878396229
  O         1.5060533720        9.2238899826       20.2864494951
  H         1.2612989760        9.9451899476       20.9636546105
  H         0.9982455433        8.4254209272       20.5441464715
  O         4.2571280335        6.6999397833       15.2054741278
  H         5.2567218099        6.4586453689       15.2432085576
  H         4.1095106635        7.2904921855       15.8952395653
  O         3.1181610938        8.7920195702        7.0372827883
  H         2.5029373218        9.5467669069        6.9372921205
  H         2.7015970389        7.9196174996        6.6928329588
  O         4.8772350925        5.0798337299       11.3471861099
  H         5.6347610177        4.5104178472       11.8123047759
  H         4.9991652264        5.0313551508       10.3943249312
  O         9.5309078389        9.1856478743        6.4814254495
  H         9.5286027931        8.2089489255        6.4413937059
  H         0.0793130292        9.6062425793        5.9971564161
  O         0.8644564266        3.1579882238        5.6366605743
  H         1.0209377277        3.7192289287        6.3630929408
  H         1.2039100421        3.4019211283        4.7660658957
  O         0.7492711426        9.6905161367       17.7270341023
  H         1.1454371636        9.5799802007       18.6435377679
  H         0.8971674802        8.8354435950       17.2481093031
  O         9.3207445738        4.2297984788       20.9589121203
  H         9.6629172548        5.2198636503       20.9192434946
  H         9.7301907116        3.8216204876       21.7978260657
  O         5.8338722175        1.9850278328       21.0740335544
  H         6.0270763526        2.9412533782       21.0381225248
  H         4.8363602542        1.9214951766       21.1866391720
     274
 i =      120, time =      120.000, E =     -4259.1828228247
 Cu         9.8406345734       -0.0698414860       25.7012729614
 Cu         2.1781094384        2.4984902993       25.7411310385
 Cu         9.7523023037       10.1330511514        2.8736893395
 Cu         2.2254892223        2.3567559507        2.9289521445
 Cu         2.1829082790       10.2534068117       25.5083880609
 Cu         9.9454207866        2.4425358069       25.7273582174
 Cu         2.1902082672       10.1316519312        2.7523312811
 Cu        10.0674842761        2.4649057277        3.0493999923
 Cu         3.5702071286        1.1899330159       23.8382798655
 Cu         0.8545168397        3.9046029020       23.9094753606
 Cu         3.4896613761        1.1315759518        1.0567310215
 Cu         0.9523888657        3.6703413304        1.1910707274
 Cu         1.0046582647        1.2270519344       23.9474437356
 Ag         3.5250879253        3.8918977703       23.7315460114
 Cu         0.8962596215        1.1358449137        1.1303959769
 Cu         3.4377701506        3.7876016989        1.0606834582
 Cu         4.7072882159       10.0488111540       25.6643985503
 Cu         7.2645600656        2.5413988174       25.8141293802
 Cu         4.7172339914        9.9999763636        3.0882062512
 Cu         7.4409983526        2.5331522390        2.9107922967
 Cu         7.2630135464       10.1932900261       25.7524571803
 Cu         4.6458404898        2.4464693108       25.7507931225
 Cu         7.2948778464       10.2194823079        3.0697113106
 Cu         4.7790598248        2.3690932752        3.0455421465
 Cu         8.4868831477        1.2507731815       24.0656588349
 Cu         6.2093550895        3.6318451580       24.0271946026
 Cu         8.5046293935        1.1719509794        1.2450224350
 Cu         6.1243700407        3.7002949128        1.2219136690
 Cu         5.9668816396        1.0722303623       23.8303161912
 Cu         8.5580483366        3.9003166763       24.0200945892
 Cu         6.0019533200        1.2140070746        1.1949962966
 Cu         8.5703816928        3.6720711238        1.1601482068
 Cu         9.9098125311        5.0802346597       25.7758000014
 Cu         2.0902716224        7.6067067443       25.7034135146
 Cu         9.8755734966        5.2341101564        2.9292425131
 Cu         2.1496057712        7.5771961815        2.8805098017
 Cu         2.2659269912        5.0552911029       25.6847492454
 Cu         9.8926500322        7.5742093596       25.6462796027
 Cu         2.1366516000        4.9577899967        2.9249636946
 Cu         9.9011020086        7.6020648474        2.7912066486
 Cu         3.4105229080        6.5831635176       23.7856780877
 Cu         1.0511054183        8.8627523171       23.8148128674
 Cu         3.4562812387        6.2758989532        1.2765874620
 Cu         0.9007422934        9.0240632363        1.0483015707
 Cu         1.0082177488        6.4244726022       23.8205096677
 Cu         3.4538195447        8.9627718686       23.8946683782
 Cu         0.8547689465        6.2535696182        1.0580491786
 Cu         3.4432299370        8.6823383716        1.0890565416
 Cu         4.7461785523        5.0895804292       25.7606845223
 Cu         7.1917952001        7.6350404662       25.7361786839
 Ag         4.7727308093        4.9932903594        3.3557761180
 Cu         7.3722942729        7.6103769977        2.7648396465
 Cu         7.2970707087        5.0102474725       25.7777398588
 Cu         4.6589874268        7.5441914843       25.7097320162
 Cu         7.4566051817        5.1007503060        3.0817153136
 Cu         4.6763158738        7.4672214938        2.9791507928
 Cu         8.6641861275        6.4144612667       23.9959860236
 Cu         5.9900104870        8.8895128602       24.0123275326
 Cu         8.5445185285        6.3116888496        1.1206973506
 Cu         5.8668072343        8.8879890269        1.1657009351
 Cu         6.1300843792        6.1859126481       23.9584347520
 Cu         8.5625935736        8.8717152933       23.9710270019
 Cu         5.9803889474        6.4748478389        1.1439045063
 Cu         8.5260884228        8.8645733331        1.0537606999
  O         5.7213829579        6.6636452162        5.9523049776
  H         5.8761400406        7.4195024322        5.3767301237
  H         4.7612554078        6.5792190922        6.0170459425
  O         9.0683452573        6.4850947180        6.4441462943
  H         8.2313884580        6.5210296620        6.9659498287
  H         8.9013811171        6.3144681289        5.5196773482
  O         1.3804636420        1.4453702502       16.1869287128
  H         1.0655241948        0.7101906183       16.8270109704
  H         1.8424828722        0.8971186749       15.4737388678
  O         4.6595370703       10.0287366764        5.3415796876
  H         4.1144238268        9.5188008706        6.0846568576
  H         4.3244476810        0.7010446679        5.3967913184
  O         1.3318944087       10.5983584832        5.6728788953
  H         0.9721415288        1.3192485166        5.7041239034
  H         1.8259341597       10.7384390181        4.8327594422
  O         6.9136153913        3.9809404538       12.8206095314
  H         6.8490277764        3.5136978885       13.6827311721
  H         7.8163496148        3.7806855262       12.3853534601
  O         1.1556520622        5.5446399095       17.0368193570
  H         1.5143465399        5.1257689299       16.2506332639
  H         0.6635377409        6.3904447099       16.6643974662
  O         8.6027265374        0.7667359598       20.9918717380
  H         8.5943037988        0.5535411504       19.9856292916
  H         7.8389468518        1.3704476922       21.2165751530
  O         6.6503096084        4.2685687401       20.6164062364
  H         7.6726355149        4.2278364564       20.8545157798
  H         6.6291114459        4.4850790690       19.6434669127
  O         2.7821270202        7.5858463415       13.2274149436
  H         3.3659298016        7.1674792684       13.9305612095
  H         3.2226649460        7.5325351194       12.3092618974
  O         7.7848571794        2.5010034942       17.2385965241
  H         7.3631864566        2.6909403997       16.3646953661
  H         8.2920077418        3.3411511531       17.4462076853
  O         0.9247460136        1.0154085946       21.9115906737
  H        10.3282896705        1.2776164498       21.3966135718
  H         1.7027471000        1.5907246759       21.4962343444
  O         5.8377520021        4.9643548963       18.2157954270
  H         4.8656773436        5.1121781563       18.3036791535
  H         6.1028917700        5.3013624713       17.3614014237
  O         8.1621990355        2.5058909495        9.0138987868
  H         7.6664166477        3.3787715637        9.0413371914
  H         8.6839328884        2.4233597752        8.1660146975
  O         6.9919206391        6.1848205757       16.0653544058
  H         7.2808234302        7.0821053925       16.2366822865
  H         7.6729762440        5.8108310279       15.4905556298
  O         9.1427844606        3.4909579801       11.1811523769
  H         8.9016207796        2.9387866320       10.3535278194
  H         9.8277680376        2.9430126727       11.6771872528
  O         3.7606562084        8.8227738293       16.7917961746
  H         3.6817292601        9.3767324060       15.8956987681
  H         4.5271404402        9.1186014054       17.3050215246
  O         6.4368905794        4.3170556201        8.7668451536
  H         6.8604778372        5.2670431029        8.7805573108
  H         6.2866727109        4.1656761819        7.7912198676
  O         8.4086045157        2.5581560966        6.1556338476
  H         8.2574662668        1.6567534695        5.7777511099
  H         9.2409088743        2.9081968300        5.8085018986
  O         5.0040891604        0.8153476707       12.9930149699
  H         4.6172550820        1.4388563406       12.2483159800
  H         5.7381652040        0.3934050092       12.4497393884
  O         3.3071157583        8.0220669004       10.7430664792
  H         4.1723610125        8.1139635370       10.2503290099
  H         3.0345579413        8.9516407695       10.9626164273
  O         4.1998940799        8.5039120229       20.8743495902
  H         4.3970892717        9.4148723388       21.2503257392
  H         3.1923563061        8.6119593502       20.7304912152
  O        10.1052118934        6.9514796318       20.7846422468
  H         9.4177964701        7.0692558242       20.0840294594
  H         9.8460495560        7.1609403034       21.7817555398
  O         2.8989734817        4.2482077910       12.9429159713
  H         3.6724616301        4.4346365830       12.3228549964
  H         3.2475804446        4.0422912752       13.8237394884
  O         9.0862176819        6.2875847749       10.7658133152
  H         9.1557568542        5.3438387059       10.8118495221
  H        10.0139721027        6.6593183844       10.7114530342
  O         3.7265414811        3.9137663441       15.7129943241
  H         3.7077755410        4.9510801766       15.7953579015
  H         3.6151424343        3.4438070999       16.5897388369
  O         3.0681503360        5.6510059478       21.0334934456
  H         2.3527827339        6.0803164354       21.5372827746
  H         3.1273492999        5.9818023708       20.1217635655
  O         9.2531205562        4.5486023173       18.2064109764
  H        10.0699923356        4.7413424342       17.6585095716
  H         9.6249398759        4.1947979669       19.0566948787
  O         7.0820665892        9.9715847993       11.9871226476
  H         7.7655070030       10.2381005386       12.7007046567
  H         6.8366424058        8.9796895775       12.2381919999
  O         3.1641398732        2.5248723788       18.0292965469
  H         2.4640774202        2.1999910519       17.3641786911
  H         3.9415421068        1.8966788072       17.9517598524
  O         0.8040224405        4.9682279771        7.6413747233
  H         0.9973206177        5.6921157755        8.2782980580
  H         0.0635142588        5.5111190061        7.2280339323
  O         8.8963416365       -0.3789116626       13.9397373201
  H         9.3096758101        0.5889618364       14.1202896166
  H         9.6001962356        9.3602473139       13.4584127874
  O        -0.4997373854        9.8759477085        9.2147847062
  H         9.6108826773        9.8703957195        8.2217862490
  H         8.8235271151        9.8250668326        9.5903673711
  O         0.2112782884        7.3974305686       13.5017575378
  H         1.1557118754        7.1778825733       13.2604178885
  H        10.0574363335        6.4880410782       13.6016937564
  O         5.7990167251        8.6399675425        8.7337825963
  H         5.2269248446        8.4685356671        7.9152709644
  H         5.9537576775        9.5831701608        8.7695125655
  O         2.7689513633        3.0439117553        8.4866904433
  H         3.2188115945        2.9337288653        7.5703617072
  H         2.0191703175        3.5217942736        8.3276180679
  O         5.8713613973        6.5818802081       21.8259599031
  H         4.9778621360        6.9715601839       21.6714894025
  H         6.0050072204        5.7728989539       21.2721368614
  O         8.0170173498        8.8704317523       16.2178376786
  H         8.0898726782        9.4875291367       17.0128897536
  H         8.2524140332        9.2939442540       15.3367865079
  O         5.6261697245        1.3690028701       18.4607327639
  H         5.5561272634        1.6724634914       19.4027102639
  H         6.2452843483        2.0256828876       18.0456956922
  O         2.2168111100        0.1851620835       10.6575180628
  H         1.5585493056        0.1149923615        9.9603738804
  H         2.8796531952        0.9047542808       10.5067829945
  O         2.6902469300        2.5441875396       20.6747150866
  H         2.4927033712        3.5044575629       20.8125410211
  H         2.7900545660        2.5678462899       19.6767239446
  O         7.6109616586        6.6515868482        8.5089151007
  H         6.8781592943        7.3320692155        8.5565607311
  H         8.1696038469        6.7405141159        9.3616381391
  O         1.1005960239        7.3471574377        9.2086775672
  H         0.4565666253        8.0676085677        9.1801408075
  H         1.9946953875        7.6499595348        9.6805323712
  O         0.9517464387        2.4522434867       12.3545529420
  H         1.3276609304        1.6468760001       11.8929814158
  H         1.7427825483        3.0125171108       12.4634461038
  O         6.0739271887        2.6275480132       15.0017584053
  H         5.8942872583        1.9296071342       14.3118227195
  H         5.1868291587        3.0918117476       15.3177980932
  O         8.9470121651        5.2712110632       14.1029760643
  H         8.1558899390        5.0090007239       13.5607441330
  H         9.2298084041        4.4233816156       14.4832633834
  O         6.0341357159        8.9503761222       18.7513492199
  H         6.0273812582       10.0029543987       18.5882161119
  H         5.6076113847        8.7256738932       19.6265210211
  O         7.4235134416        8.8581928695       22.1903870088
  H         7.3171980574        8.1222223060       21.5546563127
  H         7.8192260708        9.6864401064       21.7378088396
  O         4.0460564958        2.4458724928        6.0816268949
  H         3.5238143340        2.9543916969        5.3798054757
  H         4.8624090177        3.0389851044        6.0928296543
  O         9.5911969051        1.9028675019       14.5072627992
  H        -0.0674051009        2.3219561036       13.7435297161
  H         0.0487972423        1.8292004665       15.2664679517
  O         4.1583238875        2.0038542970       10.5423390749
  H         4.9323489325        1.6185538185       10.0513054743
  H         3.8699587496        2.7072613120        9.9025686469
  O         6.3261613975        3.9902257646        6.0980785420
  H         7.2296925013        3.6209454316        6.1391186427
  H         6.4350999239        4.9244556242        5.8838420946
  O         8.3383311983        7.1969397005       18.8115264607
  H         7.9157077505        6.3804627827       18.4798252860
  H         7.6369902266        7.9167037491       18.8674238248
  O         8.6556821380        0.2435722912       18.4454023935
  H         9.5775447080        0.0587387498       18.3893027651
  H         8.5435517766        1.1787250449       18.0249472946
  O         6.4420804692        0.7093735306        9.6657946376
  H         7.1099942002        1.3800907874        9.4548093256
  H         6.7487419882        0.2222969800       10.4647333182
  O         2.7659105951        6.3449186912        6.1674536742
  H         2.4314166186        6.2145064610        5.2039212709
  H         2.2176678542        5.7668158238        6.7657004030
  O         3.4385777684        6.0492258502       18.3664989909
  H         3.5244299274        7.0027605522       18.1688553301
  H         2.5143425069        5.7746578598       18.0373006215
  O         7.1051895735        7.3466085846       12.4486693292
  H         7.7822961517        6.8571223870       11.9195182200
  H         6.2571902481        6.8983136074       12.1858160625
  O         7.4403789409       10.3492124451        5.3375028994
  H         6.5142964925       10.0809979480        5.5381973656
  H         8.0891713504        9.7979037487        5.8738331996
  O         3.0578824917       10.1008661396       14.4203952525
  H         2.7963866797        9.2792881433       13.9589657124
  H         3.8912021130        0.1687748759       13.8999715841
  O         0.2004101547        7.6811191458       16.1466224442
  H         9.3914417060        7.8840961398       16.3131542977
  H         0.3900057927        7.6973193491       15.1354642256
  O         1.4947417396        9.2063790895       20.2855917416
  H         1.2852945388        9.8777350300       20.9893608327
  H         0.9257024745        8.4174991205       20.5741801730
  O         4.3407184404        6.6273372039       15.2612669726
  H         5.2701851244        6.5576920327       15.0544047097
  H         4.2659420876        7.5820577198       15.7603076022
  O         3.1387637576        8.8780421853        6.9737408699
  H         2.5662734960        9.5780481355        6.5697897436
  H         2.8848157593        7.9837055318        6.6110022046
  O         5.0439739885        5.1081559850       11.3518069941
  H         5.6464885394        4.4493586183       11.6913687804
  H         4.8759989224        4.8657965868       10.4201072791
  O         9.4694806555        9.2161884891        6.4351059397
  H         9.4391534662        8.1920020813        6.3745162061
  H         0.1309242254        9.6111319888        6.1564064331
  O         0.7432877745        3.2806481911        5.7191503291
  H         0.8830668386        4.1244153432        6.3016178802
  H         0.9697950640        3.6308576918        4.7847825629
  O         0.8313127945        9.7659705730       17.7986809982
  H         1.1788239871        9.4387898628       18.6911281915
  H         0.6533195269        8.9936953610       17.1690218369
  O         9.2880332638        4.0954497340       20.9640915795
  H         9.5810079057        5.0140295078       21.0585076865
  H         9.4932246163        3.6466440482       21.7874637318
  O         5.7645585674        1.9746455792       21.0919884730
  H         5.9699427949        2.9586253225       20.9758302956
  H         4.9228579330        1.9756523321       21.5380633627
     274
 i =      140, time =      140.000, E =     -4259.1420430878
 Cu         9.7908553726       -0.0374171165       25.6970355260
 Cu         2.1796974989        2.5291720982       25.7581970195
 Cu         9.7391755325       10.0864511417        2.8536016701
 Cu         2.2374265426        2.3920404502        2.8806611241
 Cu         2.1777869111       10.2425716765       25.5262293828
 Cu         9.9184452634        2.4581715139       25.7057494664
 Cu         2.1316947995       10.1473072088        2.7751810980
 Cu        10.0393468569        2.4954253243        3.1272538284
 Cu         3.6014568332        1.1449105982       23.8297647665
 Cu         0.9180242880        3.8830095599       23.9324347082
 Cu         3.4262645673        1.2075115323        1.0189410608
 Cu         0.9071256550        3.6176408589        1.2430022402
 Cu         1.0398902346        1.2569893735       23.9257888615
 Ag         3.5434886913        3.8678432384       23.7618159789
 Cu         0.8157961821        1.0742448143        1.0566324062
 Cu         3.4777958918        3.7854008209        1.0840496992
 Cu         4.7291635943       10.0431311119       25.6081867511
 Cu         7.2057337354        2.5245534874       25.8049568726
 Cu         4.7740710461        9.9354872762        3.0903203542
 Cu         7.3906630179        2.5096598587        2.8723038783
 Cu         7.2734585352       10.1680206494       25.7688009769
 Cu         4.6669319923        2.4697188995       25.7178979435
 Cu         7.3633845885       10.2406924240        3.0907766796
 Cu         4.8129114425        2.3678509561        2.9872874691
 Cu         8.4451133483        1.2446799631       24.0181689891
 Cu         6.1564943668        3.6461125307       24.0193296946
 Cu         8.5045771009        1.1312249865        1.2233845087
 Cu         6.0892556213        3.7557950480        1.2202987247
 Cu         6.0325301747        1.0899860728       23.8587159100
 Cu         8.5515268163        3.8986162014       23.9935032800
 Cu         5.9840607913        1.2445078316        1.2069474802
 Cu         8.5718302119        3.6557590384        1.1907541413
 Cu         9.8836644121        5.0942510984       25.7295319503
 Cu         2.1178080058        7.5889965233       25.7524896622
 Cu         9.8754116831        5.1876426288        2.9096808746
 Cu         2.1429239616        7.5626822771        2.8841816133
 Cu         2.2571123021        4.9967693773       25.6704842195
 Cu         9.8848186323        7.5895120850       25.7252354847
 Cu         2.1993396669        4.9147772552        2.9475700193
 Cu         9.8904846431        7.6743806489        2.7896203280
 Cu         3.4697477531        6.6344777057       23.8265607586
 Cu         1.0611661537        8.8983635035       23.7606684212
 Cu         3.4328244881        6.2678249807        1.2415830211
 Cu         0.9778190839        9.0164048009        1.1182693735
 Cu         1.0023241784        6.3722965579       23.8328968442
 Cu         3.4581253484        8.9688943843       23.9448650192
 Cu         0.8794056843        6.2734818726        1.0769337662
 Cu         3.4406242582        8.7054744836        1.0883344916
 Cu         4.7749454860        5.1088342047       25.7787748323
 Cu         7.1979775747        7.6979608976       25.7345662921
 Ag         4.7415007786        5.0311976438        3.3080517197
 Cu         7.3288564454        7.5691772270        2.7432373797
 Cu         7.3085462629        4.9680903703       25.7159866563
 Cu         4.6666432865        7.5442174719       25.7612103379
 Cu         7.4621618319        5.1621909943        3.0405121764
 Cu         4.6453899908        7.5444625408        3.0337488497
 Cu         8.6608842676        6.3933814098       23.9507069567
 Cu         6.0229216141        8.8528721055       23.9392165611
 Cu         8.5387841695        6.2765649216        1.0828832993
 Cu         5.8863452900        8.9036588608        1.1786484678
 Cu         6.1412586009        6.2046981993       23.9528652903
 Cu         8.6049446912        8.8609718704       24.0045247874
 Cu         5.9026075777        6.4280931073        1.1628320261
 Cu         8.5655355039        8.8527696252        1.1180001759
  O         5.6870977326        6.6878103186        5.8755304930
  H         5.7590235357        7.2900056790        5.0697805415
  H         4.7114800747        6.4600083646        5.9833308980
  O         9.1387102523        6.4968399857        6.4041236653
  H         8.5371041143        6.4923727251        7.2359235746
  H         8.6396068167        6.1327095890        5.5782283915
  O         1.4092813783        1.4264990692       16.2336887252
  H         1.3111436190        0.7171937859       16.9089700294
  H         2.0070294514        1.0938625949       15.5351594811
  O         4.7677653893        9.9721316961        5.3764122579
  H         4.0771661646        9.4204377846        5.9089952285
  H         4.4680530734        0.7024530427        5.6502510460
  O         1.2431443816       10.7361405616        5.6960636811
  H         1.0155059259        1.4218696248        5.9388481464
  H         1.8332596638       10.7617416776        4.8926491676
  O         7.0204986681        4.0203619281       12.8055599670
  H         6.6875154336        3.4401414214       13.5378799730
  H         7.5532719700        3.4358624373       12.2137330112
  O         1.2261614989        5.4206067252       16.9756624804
  H         1.5612708248        5.1089512084       16.1020446215
  H         0.9755035968        6.4294921383       16.7775667569
  O         8.6279643941        0.7751644029       21.0695881926
  H         8.7016205295        0.5748045885       20.0961553463
  H         7.8792445107        1.3732236641       21.1496114316
  O         6.5967530048        4.2876690664       20.5377924775
  H         7.5612329959        4.1988295272       20.7095505109
  H         6.3752622473        4.4413752985       19.5198407276
  O         2.8468948304        7.5032042666       13.2112519204
  H         3.3625113086        6.8669035042       13.7881403506
  H         3.0848182345        7.5908762455       12.2520166420
  O         7.6591180595        2.5381913040       17.3229252050
  H         7.1175065143        2.5510867632       16.4743593071
  H         8.2324751566        3.3560168049       17.5120000239
  O         0.9177787113        1.0718914655       21.9045291106
  H        10.1664451124        1.1764144885       21.6152817518
  H         1.4991484608        1.7748042489       21.5588687568
  O         5.8974059187        4.9973118988       18.2472130775
  H         4.9580150421        5.3071290921       18.2604141044
  H         6.3289295603        5.3161671827       17.3702450082
  O         8.2262588530        2.5662781454        9.0759085444
  H         7.4325311260        3.2636139318        9.0163448258
  H         8.6129697105        2.3938286073        8.2160149160
  O         6.9354684447        6.2586646609       16.0715443282
  H         7.3186738694        7.2362615877       16.0838300746
  H         7.5210885195        5.8701990709       15.3440790934
  O         9.0703329793        3.4754454976       11.3218762483
  H         8.9659495238        2.9592455374       10.4892213436
  H        10.0282569772        3.1977830401       11.6834485328
  O         3.9305053894        8.7056300046       16.7822479238
  H         3.8144778674        9.4922616682       16.2573064758
  H         4.6726424789        8.9339309198       17.4443952779
  O         6.4631554115        4.3149040820        8.7869104471
  H         6.6266913867        5.2966734120        8.6818110887
  H         6.2611957662        4.1652250103        7.8081542572
  O         8.4221086719        2.5185146685        6.1354734562
  H         8.1311770726        1.6945258113        5.6719665166
  H         9.3406751077        2.7915044220        5.7572114672
  O         4.9430827993        0.9266845340       12.9472591409
  H         4.5287111454        1.3578115352       12.1918448411
  H         5.6900411588        0.2914533150       12.6151362770
  O         3.3617916729        8.1008651232       10.7408306729
  H         4.2539285654        8.2398460658       10.4203689202
  H         2.8973192232        9.0376051199       10.6039649049
  O         4.2358293524        8.5018730338       20.8337431054
  H         4.5920425852        9.3627396355       21.0661999460
  H         3.2761618898        8.4300559734       20.7007772663
  O        10.2538612553        6.9450042610       20.8056895120
  H         9.4190434367        7.1183482045       20.2375737223
  H         9.9801976233        7.3745754384       21.5915697321
  O         2.8424741748        4.1204214111       12.8773045692
  H         3.6301859135        4.4680459043       12.4140966021
  H         3.1389164802        4.2123905882       13.8212402656
  O         9.0603106040        6.2354173260       10.7371981231
  H         9.3892660299        5.2508733485       10.9424747568
  H         9.8281912199        6.7328428027       10.4414070704
  O         3.6352092066        3.8872502287       15.5936951844
  H         4.0850693428        4.7055652683       15.7858764285
  H         3.2838132226        3.6698405290       16.4812714039
  O         3.1053785463        5.5639302718       21.0279680085
  H         2.1901910512        5.8478016961       21.2826380444
  H         3.1865550652        5.8677956307       20.0522824065
  O         9.3244444953        4.5037082681       18.1135474259
  H        10.1574913848        4.8549486877       17.6786428333
  H         9.5122029966        4.1835642393       19.0111415498
  O         7.1375025567        9.8409546559       11.9262753148
  H         7.7740205102       10.1431586294       12.6338787785
  H         7.2501237157        8.8788454130       12.0270380142
  O         3.1276878613        2.6050860353       17.9583937963
  H         2.6351906221        1.9387748684       17.4518068849
  H         4.0767104842        2.1772455062       17.9634676959
  O         0.8063938381        5.1198774456        7.6852141513
  H         1.1141556575        5.7939189894        8.3952400748
  H        -0.0588718240        5.5395267753        7.2581146533
  O         8.8325040538       -0.3593158726       13.8642401515
  H         9.2494659649        0.5483941902       14.0417963608
  H         9.4472430922        9.1448703940       13.5580285939
  O        -0.4540038567        9.7897387215        9.2509144155
  H         9.5736959727        9.5809922621        8.2948809394
  H         8.8544044266        9.6651837548        9.5339083437
  O         0.2981954161        7.2822232332       13.4868496642
  H         1.2912552303        7.2582056097       13.2790821458
  H        10.0287366783        6.4362932427       13.5281009775
  O         5.7935418476        8.5783579168        8.6423772693
  H         5.0980583097        8.6432943091        7.9897858066
  H         6.0357636643        9.5071793825        9.0887557716
  O         2.8693505505        3.1442657492        8.4564883954
  H         3.5135569405        2.9202833561        7.7943922272
  H         1.9549171786        3.5863638011        8.0921254424
  O         5.9772570735        6.6317305827       21.8480151752
  H         5.0665664454        6.8451771095       21.5242972109
  H         6.1548841522        5.7166249459       21.4285968562
  O         7.8952147291        8.8507297276       16.1698658662
  H         7.9562011937        9.1637812630       17.0852802386
  H         8.3521650677        9.4043227524       15.4542341160
  O         5.5193960217        1.4201103743       18.3519471167
  H         5.4139772516        1.4909035222       19.3790174107
  H         6.4044673326        1.9318796265       18.1341709924
  O         2.2320548876        0.2626943698       10.7299166956
  H         1.4787361088        0.5010103251       10.1050067092
  H         3.0141590736        0.8001484802       10.4922720763
  O         2.6373603183        2.6302669170       20.7485751896
  H         2.8990605685        3.6014586835       20.7893194043
  H         2.7160140214        2.4617258750       19.7530763549
  O         7.4869458457        6.7222616855        8.5629574139
  H         7.0731912170        7.6481216852        8.6358755459
  H         8.0538254241        6.5550848660        9.3577426657
  O         1.0075044202        7.3006012334        9.2939354681
  H         0.5587020548        8.1665005572        9.0305418384
  H         1.8206719101        7.5878221932        9.6888169485
  O         1.0155523235        2.4612749885       12.3927635007
  H         1.4440492687        1.6596664017       12.0739943549
  H         1.7675482195        3.1980054933       12.5356612608
  O         6.0557716984        2.5597272177       14.9854376244
  H         5.7304068062        1.8476996390       14.3897990108
  H         5.2843088360        3.0373001059       15.2203585262
  O         8.8651601481        5.2278436428       14.0373795174
  H         8.1640621435        4.8648758563       13.4273904874
  H         9.0773881116        4.3100422786       14.4524551474
  O         5.9992013519        8.9481207825       18.7324914159
  H         5.9554386236        9.8782395854       18.6009103554
  H         5.4910146629        8.6623403297       19.5068979943
  O         7.3989483787        8.8386866798       22.1678610710
  H         7.0183609696        7.9400524180       21.9326526745
  H         7.8243633197        9.3920185184       21.4930060671
  O         4.0560875785        2.6619881125        6.0251046492
  H         3.3871525955        2.9916707085        5.4109353954
  H         4.9033381283        3.2222530008        5.9130241028
  O         9.6805603516        1.9590220580       14.4676147208
  H         0.0083435193        2.2200984878       13.7225203465
  H         0.1509290364        1.7510528212       15.1853462050
  O         4.1461931532        1.9450623235       10.4743269201
  H         4.9420881460        1.5564453459        9.9962971573
  H         3.5195174063        2.5087983490        9.9368430479
  O         6.3674429999        3.9687765602        6.2484019791
  H         7.1005114963        3.3966090509        5.9238403773
  H         6.4076747460        4.9258134684        5.9196297970
  O         8.2892279357        7.2498484256       18.8212982013
  H         7.8858058121        6.3501027620       18.7461471317
  H         7.5303965080        7.8562176136       18.7794569237
  O         8.6869569403        0.2969214136       18.6144433608
  H         9.6379502108        0.1319997162       18.1335475772
  H         8.3110798930        1.0135297463       18.0203852312
  O         6.3733765690        0.7228877869        9.6938283905
  H         6.9956566216        1.4182730340        9.2113821749
  H         6.8205860346        0.5161930686       10.5854870157
  O         2.8012836257        6.3287549636        6.1840273793
  H         2.7676080081        6.3077779661        5.2354313587
  H         1.9146987421        6.0464734100        6.5183763521
  O         3.3158497399        6.1303101352       18.4305013024
  H         3.5546805613        6.9033696860       17.8803605419
  H         2.5669191291        5.6989702908       17.9330768969
  O         7.0660823536        7.2891229924       12.4590673254
  H         7.8706072541        6.9878305654       11.9622047096
  H         6.3716635258        6.6961413502       12.1607533523
  O         7.3817455233       10.4540523619        5.2397957794
  H         6.4645084746       10.2452480595        5.5672848290
  H         7.9721124510        9.7391829710        5.5829700733
  O         2.8740508560       10.0687139727       14.4431371697
  H         2.8469369926        9.1261314458       14.0388793782
  H         3.5521434845        0.3465836406       13.8236513598
  O         0.2307532106        7.8186146540       16.1815499682
  H         9.5039566935        7.7793826350       16.2788139058
  H         0.4134763042        7.7344186483       15.2048560690
  O         1.5323437436        9.0490980553       20.3236012932
  H         1.2784652131        9.8294039947       20.8988750301
  H         0.8607881435        8.3249775060       20.4205014546
  O         4.3880115877        6.5865333732       15.2779624809
  H         5.4340689773        6.4831778099       15.3726785272
  H         4.2455832140        7.3581602000       15.9759098563
  O         3.1148178344        8.9788236369        6.9279078011
  H         2.2098396160        9.3404596267        6.8056501039
  H         2.9019207871        8.0137228138        6.7651393877
  O         5.1392959822        5.1586119951       11.3502637834
  H         5.9146144072        4.6374361064       11.7591420184
  H         5.1653427424        4.6936187125       10.4234872063
  O         9.4121978670        9.2103055368        6.4835581083
  H         9.4927675092        8.2289005215        6.4066748001
  H        -0.1692884407        9.5047217127        5.8102506780
  O         0.6229363777        3.3644082021        5.7389733232
  H         0.9286406764        4.0035918740        6.4009100312
  H         0.8120090560        3.7824205968        4.8311294950
  O         0.8833466595        9.7668208769       17.9011476460
  H         1.4251629507        9.5082150114       18.6772269499
  H         0.7267486992        8.9809593484       17.3129012120
  O         9.2976848639        3.9849508389       20.9661995838
  H         9.7345627957        4.8724328740       21.2399052705
  H         9.3794045160        3.5354448295       21.8909765955
  O         5.6663697630        1.8982447645       21.1146517000
  H         6.1355140721        2.8297999022       20.8966388867
  H         4.9991850055        2.0823924347       21.8739200400
     274
 i =      160, time =      160.000, E =     -4259.1858003107
 Cu         9.7558000139       -0.0229521157       25.6796783381
 Cu         2.1716922945        2.5477150028       25.7636888424
 Cu         9.7801930439       10.0645063944        2.8522428219
 Cu         2.2745560496        2.4315842161        2.8342857233
 Cu         2.1728407326       10.2028205386       25.6158246268
 Cu         9.8658468949        2.4918630351       25.6877061461
 Cu         2.1043916304       10.1682927454        2.8226950299
 Cu         9.9726708369        2.5128379207        3.1526676678
 Cu         3.6210738483        1.1216165847       23.8334077055
 Cu         0.9507896998        3.8514291728       23.9640205375
 Cu         3.3804236910        1.2575343169        1.0079334089
 Cu         0.8560508241        3.5997060313        1.2654359101
 Cu         1.0431117240        1.3110914927       23.8925336061
 Ag         3.5647258336        3.8393004804       23.7781459234
 Cu         0.7489318123        1.0869303263        0.9981511497
 Cu         3.5280458663        3.7677530221        1.1253677551
 Cu         4.7678993046       10.0759912643       25.6063272664
 Cu         7.1811318463        2.4619365749       25.7932164282
 Cu         4.8086129054        9.9125096698        3.0875246223
 Cu         7.3219388766        2.4969164715        2.8750230506
 Cu         7.2724581092       10.1483898260       25.7906945817
 Cu         4.7199519399        2.4890030326       25.6860734681
 Cu         7.3998792344       10.2387780920        3.0964180763
 Cu         4.8233240721        2.3623832452        2.9125394442
 Cu         8.4302135810        1.2619507417       23.9826718629
 Cu         6.0783033943        3.6648447791       23.9880919274
 Cu         8.5237390330        1.1127519915        1.1659453770
 Cu         6.0246391463        3.8406598865        1.2121042648
 Cu         6.0898165933        1.1464842240       23.9126262347
 Cu         8.5755443336        3.8613833267       23.9602676899
 Cu         5.9565193523        1.2382210670        1.2081433755
 Cu         8.6096017765        3.6784440205        1.2041878161
 Cu         9.8652718138        5.0822987524       25.6855347122
 Cu         2.1625023850        7.5734272306       25.7815958376
 Cu         9.8932423594        5.1080596340        2.8887081733
 Cu         2.1324823023        7.5398561020        2.8972491406
 Cu         2.2282628188        4.9814764067       25.6852641940
 Cu         9.8684588423        7.6308664053       25.8026572816
 Cu         2.2254291989        4.8825839822        2.9694646305
 Cu         9.8746438103        7.7247804423        2.8015868537
 Cu         3.5247935361        6.6365289550       23.8853951360
 Cu         1.0307744174        8.9124107845       23.7398466409
 Cu         3.4011555591        6.2471374031        1.1720178201
 Cu         1.0249221893        8.9200267914        1.1442774500
 Cu         0.9812262604        6.3127869989       23.8657857625
 Cu         3.4732395713        8.9584693811       23.9680690180
 Cu         0.9241569217        6.2947284495        1.1017297308
 Cu         3.4380896128        8.7917570431        1.1033700362
 Cu         4.8122351519        5.1111435774       25.7982239707
 Cu         7.2251586240        7.7183283991       25.7487837271
 Ag         4.7213206306        5.0532909309        3.2519058957
 Cu         7.2607127896        7.5523297561        2.7681205741
 Cu         7.3138342092        4.9769793643       25.6926061598
 Cu         4.6944339810        7.5507780996       25.7872502872
 Cu         7.4462086687        5.1942656830        2.9717538136
 Cu         4.6270381578        7.6388042602        3.0617248212
 Cu         8.6615222487        6.3514158364       23.9198078420
 Cu         6.0336304125        8.8196297225       23.8692664547
 Cu         8.5366293784        6.2383658083        1.0294659355
 Cu         5.9382804501        8.9388409381        1.1970690302
 Cu         6.1240193506        6.2276225642       23.9489046827
 Cu         8.6679848141        8.8572555036       24.0329584337
 Cu         5.8565157659        6.3377187749        1.1809146126
 Cu         8.5946383114        8.8520560814        1.1612066190
  O         5.6770107435        6.7248274458        5.8409300640
  H         5.6835582153        6.7754477482        4.8616773074
  H         4.7915739812        6.4172993413        6.0725348141
  O         9.1288499929        6.4804202089        6.4279185784
  H         8.4546549558        6.7275119525        7.1709139996
  H         8.6039322449        6.1352817173        5.7329405437
  O         1.5355393898        1.4119684415       16.2503455063
  H         1.1709489877        0.6867321058       16.8194305634
  H         2.0219243971        0.8893231252       15.5352749947
  O         4.9029285900       10.0951136989        5.3604091092
  H         4.1547669061        9.5229635169        5.6888003177
  H         4.7056575726        0.7657926533        5.6259944802
  O         1.2017436549       10.8706170725        5.7839383036
  H         1.1805968089        1.6168605926        6.0193381621
  H         1.4486130850       10.8559105466        4.8180286685
  O         7.0287726148        3.9311701238       12.7523488898
  H         6.5153130362        3.4046341309       13.4487429885
  H         7.7683379331        3.4409304283       12.2455023309
  O         1.3570466841        5.3973048597       16.8390434958
  H         1.5965494386        4.8420187910       16.0610745877
  H         0.8727171224        6.2029917061       16.5469467448
  O         8.6177826909        0.7611220897       21.1564749181
  H         8.6514705266        0.8506751290       20.1630045373
  H         7.7312140028        1.2705338975       21.3272469097
  O         6.5812700645        4.3194658316       20.5443395361
  H         7.5847309276        4.2332940606       20.4506718699
  H         6.2381331169        4.6802620926       19.6164294354
  O         2.9072550171        7.4271524693       13.2513242437
  H         3.7090651127        7.0240157162       13.6058280988
  H         3.2677264248        7.6629607855       12.3301842784
  O         7.5320232153        2.5262405074       17.3808809431
  H         7.3148813002        2.4403877398       16.4350101769
  H         8.2165351865        3.2448072444       17.5465874256
  O         0.8781928985        1.1283102085       21.7742102270
  H        10.1443649984        1.0628100465       21.6730044859
  H         1.1834295658        1.9356895831       21.2044118461
  O         5.9194308606        5.0305868129       18.1779581970
  H         5.1153344625        5.6117824006       18.2091056663
  H         6.5225504470        5.5357550718       17.5994280842
  O         8.2551291162        2.5415589556        9.0616285344
  H         7.6632309367        3.4251316477        8.9533745695
  H         8.4565128643        2.4352985830        8.0582819035
  O         6.9546180398        6.3340102354       15.9767459618
  H         7.1596883184        7.2817583418       16.0364941169
  H         7.5965988317        5.9608546297       15.3220718883
  O         9.0745193702        3.5089436404       11.4284565000
  H         8.8597188279        3.3196714079       10.4729666012
  H         9.8943266428        3.0812100650       11.7150782690
  O         4.0956477273        8.5796759771       16.8731082487
  H         3.7884605580        9.3493549668       16.3170040285
  H         4.9553463000        8.7931945834       17.2451723038
  O         6.3370907955        4.3442467707        8.8646900866
  H         6.8131689562        5.2221340045        8.7600346081
  H         6.2263486375        4.1312399644        7.8821220650
  O         8.4133292084        2.4414556579        6.1360472510
  H         8.0673832511        1.6118920478        5.6778919320
  H         9.3002220996        2.7165555730        5.8833206260
  O         4.8750717196        1.0242563878       12.9483713007
  H         4.7510511774        1.6249049275       12.1304033492
  H         5.4645995180        0.3217879481       12.7651550636
  O         3.3728332425        8.1944640612       10.6569251345
  H         4.2935329480        8.1302006041       10.1565043409
  H         3.0382805737        9.0952025361       10.6455637485
  O         4.2797158212        8.5283822420       20.7747308011
  H         4.4342967875        9.1949533006       21.5053337749
  H         3.3098349553        8.6674377647       20.5607627990
  O        10.2970931369        6.9664995873       20.7910275940
  H         9.4827799220        7.0507050069       20.2330520255
  H         9.9606289079        7.0450543355       21.7864676735
  O         2.8571794282        4.1017112806       12.8382209394
  H         3.6277503468        4.4919538144       12.2904560186
  H         3.1236703865        4.0094961110       13.7996485239
  O         9.0211669518        6.1771237390       10.7077678228
  H         9.0866387981        5.2468731136       10.9731732251
  H         9.9583590586        6.4339414524       10.3700459126
  O         3.5809567255        3.9312837490       15.4760955729
  H         3.9092421142        4.9241173142       15.5975148921
  H         3.4326511263        3.5076572669       16.3992684517
  O         3.1247902159        5.4322495630       21.0225530412
  H         2.1942938341        5.6217432745       21.1858022612
  H         3.2002612039        5.7795311647       20.1138158167
  O         9.2661824267        4.4132584565       18.0824687506
  H        10.1246360313        4.6409994509       17.6369924828
  H         9.5475765772        4.0561791819       18.9477131713
  O         7.1830954513        9.7642159841       11.8382486383
  H         7.8684538798        9.7030290274       12.5424735336
  H         6.8244947866        8.8194100614       11.8242615363
  O         3.1215832091        2.6980105426       17.9216658786
  H         2.5809241656        2.0630023767       17.3312373122
  H         4.0298585942        2.4201367384       18.0291238501
  O         0.8112782000        5.3187153394        7.7396924284
  H         0.9463910944        5.9779130166        8.4343033854
  H        -0.0078426095        5.5277452481        7.2610104385
  O         8.8107896709       -0.3827385921       13.8402073440
  H         9.2559343064        0.4712526034       14.0689869398
  H         9.4363538766        9.1044292330       13.7803258794
  O        -0.4016559645        9.6150388719        9.1806078345
  H         9.4765919665        9.7988113094        8.2651695324
  H         9.0967435825        9.7515820569        9.8369403876
  O         0.3352064008        7.2841278924       13.5625200412
  H         1.2908739844        7.1413561317       13.3268756286
  H        10.0220500520        6.4300222860       13.4890139264
  O         5.7263613791        8.6217483490        8.6454620309
  H         4.9971991824        8.8124456149        8.0110180846
  H         6.0241096388        9.5113503002        8.9947850765
  O         2.9670206301        3.2315075625        8.4662170895
  H         3.3201924227        3.0302866563        7.5413613469
  H         2.2098318474        3.7585596203        8.3327892008
  O         6.1178016760        6.5631985211       21.8104181862
  H         5.2922145564        6.9935100754       21.4600667536
  H         6.2862980856        5.7052370103       21.2792471652
  O         7.7360064430        8.7478614403       16.1626461948
  H         8.0230663935        9.3126918997       16.9270481149
  H         8.0006203975        9.3494634597       15.4210948726
  O         5.4084799899        1.4290738227       18.3788342296
  H         5.3568095832        1.5942203025       19.3235141082
  H         6.1623492340        1.9625268467       18.0509738474
  O         2.1508237628        0.3255486311       10.8235238774
  H         1.5159541750        0.5396793655       10.1428637482
  H         2.9629288031        1.0372204016       10.6393233971
  O         2.6107024622        2.7581643084       20.7782315134
  H         2.9299181702        3.6599645718       21.0150258594
  H         2.6971123260        2.6341028591       19.8170570807
  O         7.5334587766        6.7386377163        8.5735073778
  H         6.7277918942        7.3237179264        8.6255502144
  H         7.9727964467        6.6517272073        9.4832129389
  O         0.9336962038        7.2707694538        9.3973152641
  H         0.6547493721        8.2040205680        9.3309950087
  H         1.8818353368        7.3424288832        9.8139135741
  O         1.1244401273        2.4332189434       12.4209947013
  H         1.4580998374        1.5587793146       12.0230358485
  H         1.9456279559        3.1505979005       12.5794555690
  O         6.0264724172        2.5151574890       14.9300250169
  H         5.6169989573        1.7429995092       14.4487568349
  H         5.1168126794        2.9267243946       15.2875793122
  O         8.8189961069        5.1554835309       14.1287855009
  H         8.0888103073        4.8365502165       13.4421249605
  H         9.2770654117        4.3841916443       14.3756618806
  O         5.9611655456        8.8612942097       18.6711508691
  H         5.9924870722        9.9264692649       18.7260204675
  H         5.1470437733        8.8300042234       19.2757214587
  O         7.3741402559        8.7400483183       22.1164890544
  H         7.0575184113        7.9164294952       21.6210991747
  H         7.5631046837        9.4977619004       21.4641630570
  O         4.0691412021        2.8116652103        5.9572209305
  H         3.4108144764        3.0277295890        5.2578279439
  H         4.9082587913        3.3116697360        5.8521690841
  O         9.7706076299        2.0763595323       14.4574140379
  H         0.2690940781        2.1266419711       13.7124162893
  H         0.0629279339        1.9617745728       15.2577849262
  O         4.1025366195        1.8952032579       10.4069821825
  H         5.0055940111        1.6270987789       10.0724620701
  H         3.7292855527        2.4834661071        9.7086418386
  O         6.3200681664        3.9843908865        6.2595150028
  H         7.2987450050        3.5783212635        6.1587694996
  H         6.1562030426        4.8633479177        5.8712735694
  O         8.2560974051        7.3192067885       18.9171142902
  H         8.0744567745        6.4092754103       18.6621528072
  H         7.3557426217        7.8086043963       18.9125017097
  O         8.6908609254        0.3435805368       18.6250616176
  H         9.6149575640        0.0816586564       18.3845821060
  H         8.4741769877        1.1758268630       18.1409412687
  O         6.3251085916        0.7793377449        9.6750819603
  H         7.1898407595        1.2267132106        9.3632015661
  H         6.5898074223        0.3882605265       10.5599157058
  O         2.8593498694        6.3750491556        6.1599115737
  H         2.7890357269        6.4043568090        5.1165451948
  H         2.0170082420        5.9026151983        6.4791123500
  O         3.2478096926        6.2219186342       18.4501703334
  H         3.3811649907        7.0580702142       17.9290954701
  H         2.6342545115        5.7239126000       17.8272168020
  O         7.0727370365        7.1816624190       12.4208106808
  H         7.9317098381        6.8520471723       12.0746018783
  H         6.3494724659        6.6873556553       11.9252513091
  O         7.3164875807       10.4848349729        5.1395051567
  H         6.3216389202       10.1655044260        5.3206876003
  H         7.9840352970        9.9472758706        5.6726378187
  O         2.7460349651       10.0413663242       14.4704643645
  H         2.6875387731        9.1451981532       14.1362523082
  H         3.3855039256        0.2424479619       13.9316157700
  O         0.3405412362        7.8655550182       16.1923024463
  H         9.5758132225        8.0524494282       16.3934012314
  H         0.2230096645        7.6769885662       15.2070680528
  O         1.6807935932        8.9316349312       20.3534203792
  H         1.3519943135        9.6140992636       20.9700645064
  H         1.1585155049        8.0997723834       20.5109013115
  O         4.4549135329        6.4398720204       15.3218680147
  H         5.3793721817        6.4331647799       15.5282499973
  H         4.1385383272        7.2438323401       15.6377315685
  O         3.0027435364        8.9489624572        6.9948391468
  H         2.2122616508        9.5050348606        6.7879221066
  H         2.7670576170        8.0022379259        6.7168407908
  O         5.1952674911        5.1921943285       11.3451952468
  H         5.8148825291        4.7871322406       11.9932517329
  H         5.4733141998        4.8700956274       10.5048758733
  O         9.3412025434        9.1455477214        6.5077210859
  H         9.3092089383        8.2038771043        6.1719320073
  H        -0.2596613765        9.6967126201        5.9575465414
  O         0.6066062440        3.4049967429        5.7291416882
  H         0.7352720237        3.9195935494        6.5942355266
  H         0.8496245862        3.8286195322        4.8897921386
  O         0.9399141447        9.7503627631       17.9478075748
  H         1.2027591625        9.4475532557       18.9089638470
  H         0.9861854635        8.9437809735       17.3809877613
  O         9.3416670039        3.9350243712       20.9986149488
  H         9.7826843434        4.7111288414       21.3078199890
  H         9.3364105655        3.3444542015       21.7533400205
  O         5.6284519325        1.8060899617       21.1018110652
  H         5.9165424504        2.7362356788       20.9075144329
  H         5.0318295173        1.8954120613       21.8398916281
     274
 i =      180, time =      180.000, E =     -4259.1716493766
 Cu         9.7535010262       -0.0239305384       25.6492078231
 Cu         2.1555188625        2.5454257734       25.7593771483
 Cu         9.8673971754       10.0951412766        2.8685520671
 Cu         2.3090441807        2.4587299537        2.8092014158
 Cu         2.1600996858       10.1540671598       25.7230029165
 Cu         9.8016797223        2.5321369239       25.6721965457
 Cu         2.1065169683       10.1989131438        2.8774777412
 Cu         9.8876696932        2.5049045388        3.1253781154
 Cu         3.6221879910        1.1182957591       23.8520017359
 Cu         0.9464004442        3.8131351183       23.9893914973
 Cu         3.3646519582        1.2673413699        1.0178320688
 Cu         0.8231011446        3.6194867812        1.2506662136
 Cu         1.0324309126        1.3627380524       23.8469950808
 Ag         3.5755718152        3.8128072450       23.7802125489
 Cu         0.7225942715        1.1408894984        0.9786340079
 Cu         3.5640872477        3.7438615247        1.1597626623
 Cu         4.8165587296       10.1311078670       25.6521432764
 Cu         7.1975501146        2.3976739095       25.7871254218
 Cu         4.8163305258        9.9688061498        3.0748483229
 Cu         7.2561173594        2.5044766707        2.8917815630
 Cu         7.2636600482       10.1344809136       25.8033058034
 Cu         4.7743150752        2.4967051630       25.6742816143
 Cu         7.4120385767       10.2150490989        3.0701459974
 Cu         4.7991876375        2.3590627037        2.8458212510
 Cu         8.4579522615        1.2910477733       23.9633847321
 Cu         6.0290062204        3.6920314614       23.9467491990
 Cu         8.5414639520        1.1305209737        1.1057947292
 Cu         5.9766556222        3.9099465882        1.1920678141
 Cu         6.1132786962        1.2174972925       23.9756357418
 Cu         8.6038727365        3.7964488762       23.9261727404
 Cu         5.9351118877        1.1996653865        1.1860734465
 Cu         8.6414195677        3.7174792831        1.1990249603
 Cu         9.8621169387        5.0573584150       25.6619365777
 Cu         2.2073230323        7.5639336991       25.7752805757
 Cu         9.9209279052        5.0295737987        2.8711487861
 Cu         2.1328857836        7.5088312470        2.9188587444
 Cu         2.1951012125        5.0091011451       25.7313828898
 Cu         9.8559607019        7.6731866879       25.8537472048
 Cu         2.2008827693        4.8735303837        2.9816274940
 Cu         9.8524730772        7.7076631440        2.8345516183
 Cu         3.5629759436        6.5816874125       23.9451046771
 Cu         0.9811182181        8.9044539493       23.7682280723
 Cu         3.3713100206        6.2365479149        1.0961565732
 Cu         1.0294704132        8.7948249175        1.1274136124
 Cu         0.9593486314        6.2685134110       23.9172631992
 Cu         3.4848085149        8.9388385210       23.9729907010
 Cu         0.9591706389        6.2988977414        1.1277529959
 Cu         3.4548254164        8.9139867781        1.1350501613
 Cu         4.8366103324        5.0932802191       25.7983927670
 Cu         7.2631091542        7.6881128170       25.7728024793
 Ag         4.7146725223        5.0658499063        3.1957639213
 Cu         7.1864856245        7.5637757506        2.8186000833
 Cu         7.3137287442        5.0150694488       25.6953445231
 Cu         4.7464948912        7.5760768833       25.7971459752
 Cu         7.4150070665        5.1824462389        2.8908618570
 Cu         4.6154366090        7.6956531768        3.0468819615
 Cu         8.6659535815        6.3088868482       23.9135563083
 Cu         6.0307494250        8.8026273193       23.8122785363
 Cu         8.5405944833        6.2172348955        0.9869140039
 Cu         6.0062701055        8.9687127597        1.2126331079
 Cu         6.0875021453        6.2493186344       23.9404358116
 Cu         8.7268975689        8.8513022606       24.0341081926
 Cu         5.8578234962        6.2608705994        1.2045969151
 Cu         8.5938051903        8.8599891135        1.1742444776
  O         5.7129730151        6.6861586579        5.8478330273
  H         5.6276987984        6.4267838365        4.8857483848
  H         4.7342583572        6.6688715445        6.0920004002
  O         9.0007285678        6.5090267197        6.4508006818
  H         8.2883097766        6.5318440874        7.1257658390
  H         8.5443690137        6.1480118557        5.6143428956
  O         1.6365452009        1.3885231817       16.2355562945
  H         1.3212992944        0.8239634133       17.0354161863
  H         1.8392543274        0.7069763770       15.5407417720
  O         4.8456495814       10.2706034326        5.3390804247
  H         4.4110227651        9.7262518856        6.0824661025
  H         4.4618716201        1.0218007134        5.4347242867
  O         1.1929211782       10.9731830547        5.8825375529
  H         1.1263635712        1.7257003034        5.9691760742
  H         0.9173290771       10.9357245972        4.9313077705
  O         6.8985013870        3.7842224013       12.7659606027
  H         6.7972746352        3.2478161466       13.5852755601
  H         7.8121637259        3.5746988972       12.2616976651
  O         1.3737387983        5.3140041152       16.6834721312
  H         1.7878904186        4.7704505397       15.9949455883
  H         1.0447209922        6.1756404471       16.2787328842
  O         8.4500203635        0.7970870364       21.2197730293
  H         8.3676876618        0.5352460861       20.2203283394
  H         7.6936987978        1.2814438789       21.5171362756
  O         6.5739636575        4.3543170059       20.5278574019
  H         7.5253686621        4.2414242653       20.7247281720
  H         6.5027351886        4.5227424359       19.5470474352
  O         3.0384779181        7.4352054308       13.2563492158
  H         3.7492928501        6.9504847461       13.7819112711
  H         3.3811052153        7.5712318380       12.3495829203
  O         7.5173086561        2.4676747695       17.3609309718
  H         7.3074937902        2.5129160980       16.3840429323
  H         8.0313094765        3.3080799638       17.4564869622
  O         0.8238696762        1.1275937386       21.6613598312
  H        10.0768562256        1.2216176342       21.2886351664
  H         1.4698592326        1.8642174116       21.3244439621
  O         5.8900370397        5.1483194603       18.1189227978
  H         5.0036752912        5.5669428619       18.0494009760
  H         6.3773651845        5.4651939687       17.2971195583
  O         8.2790773271        2.5418198409        8.9568727028
  H         7.4635313028        3.1192665675        8.9151903622
  H         8.4737777880        2.4695433469        8.0228420140
  O         7.0165693887        6.3353575164       15.8936057398
  H         7.3048462157        7.2574887978       16.1234634400
  H         7.7261503418        5.8573353073       15.4066473555
  O         9.1648235028        3.5317743868       11.4077881532
  H         9.0608134013        2.9958661126       10.5864217713
  H        10.0065267327        3.1062523561       11.8885469642
  O         4.1573384719        8.4561318306       16.8780852110
  H         3.7373684499        9.2082967339       16.3962529551
  H         5.0565054815        8.7258398425       17.3741647440
  O         6.2732911235        4.3980492383        8.9765057076
  H         6.8752936804        5.2502385116        8.8346132930
  H         5.7890972908        4.1637769656        8.1611367223
  O         8.3707555027        2.4163962656        6.2403331853
  H         7.9562895082        1.6908561054        5.6702864913
  H         9.2210851077        2.6833872482        5.7296561832
  O         4.7970715793        1.0590521526       12.9870551847
  H         4.5908721359        1.7212222520       12.3117449510
  H         5.5858279317        0.5643653850       12.5086907855
  O         3.3971800630        8.2157580877       10.5576389585
  H         4.0134143159        8.2633527206        9.8742897241
  H         3.0529066356        9.2004398193       10.6986889528
  O         4.3359383840        8.6127739278       20.7373702805
  H         4.4370826943        8.7576979155       21.7050780503
  H         3.2935217910        8.6471034730       20.7214460724
  O        10.2731151597        6.9006038507       20.8133008308
  H         9.5625302677        7.3080415859       20.2043830472
  H         9.9632043932        6.7967058094       21.6970165836
  O         2.9603116971        4.1814867055       12.8217345180
  H         3.5952707309        4.4612986459       12.1522664987
  H         3.3720997877        3.8941157815       13.6738661000
  O         8.9910526093        6.1225657608       10.7051430457
  H         9.0096243719        5.1512715543       11.0370000379
  H         9.9085873299        6.3227934599       10.4976114366
  O         3.5434190166        3.9655379477       15.3992372847
  H         3.7343153371        4.9801304606       15.4194344408
  H         3.5818220904        3.6357971374       16.3398845616
  O         3.1247709411        5.3156559096       21.0240412081
  H         2.2971193876        5.6721323327       21.4419100148
  H         3.1965509861        5.7284198920       20.0919662306
  O         9.2213229007        4.3202156139       18.1019028197
  H        10.0136086458        4.4688475188       17.5392415832
  H         9.5995300599        4.0398190979       18.9828699412
  O         7.1086895491        9.6632189514       11.7131778010
  H         7.7973021033        9.9593850696       12.4123154342
  H         6.9264171094        8.6461867633       11.9197903309
  O         3.1306753670        2.8667870005       17.8927878138
  H         2.4389955230        2.4041741213       17.3024029859
  H         3.7840973682        2.1109977520       18.0976458456
  O         0.8550613834        5.4133765914        7.7268291150
  H         0.9269728308        6.2242812276        8.3514386061
  H         0.1135509219        5.7702440919        7.1531930156
  O         8.8326655587       -0.4404380424       13.9044806435
  H         9.2018838349        0.5330055368       14.0666371820
  H         9.6946049810        9.2982359591       13.7624153178
  O        -0.3265353991        9.5207464968        9.1482602558
  H         9.3504027097        9.3482015503        8.3302216783
  H         9.4010789793        9.7602046895        9.9426680890
  O         0.3018631167        7.3244375412       13.6881374068
  H         1.2102371394        7.0206347840       13.4463118314
  H        10.0183819379        6.4962314705       13.6635397533
  O         5.5496989055        8.6966651717        8.6912366986
  H         4.8977348900        8.7921973867        7.9387368089
  H         5.8854847212        9.6080780657        8.7017419081
  O         3.0403436675        3.2963257119        8.4191628922
  H         3.1418130237        3.4612674631        7.4372657156
  H         2.5020774894        4.1388700073        8.6586952243
  O         6.2224231488        6.4905408876       21.7127534880
  H         5.3658762155        6.8948445791       21.4559218541
  H         6.3066752325        5.5345882950       21.2806337273
  O         7.6587394145        8.7900673721       16.1833085962
  H         7.7164194293        9.4999094621       16.8502804953
  H         7.6725590875        9.1586898505       15.2663653405
  O         5.2903888328        1.3974635130       18.4538136145
  H         5.3142684704        1.5163092794       19.4633269164
  H         5.9404170064        2.0756848357       18.0859272368
  O         2.0378968582        0.4129163876       10.9274148738
  H         1.5761036808        0.1931068738       10.0697887986
  H         2.8727170389        0.9747571008       10.5895987718
  O         2.5858354424        2.8560858778       20.7457816556
  H         2.6109863406        3.8264300826       20.9834017475
  H         2.7879029200        2.8685143836       19.7458427981
  O         7.5794285407        6.6828923183        8.5621789981
  H         6.8622089840        7.3903579400        8.5253855601
  H         8.0922210864        6.8858497695        9.3844413594
  O         0.9769518070        7.2366221152        9.6155004195
  H         0.3772589888        8.0461429808        9.4484599685
  H         1.8367482207        7.5407420643        9.9419908010
  O         1.1626807665        2.3121376108       12.4053774638
  H         1.4534701258        1.5173830017       11.8540250963
  H         1.9080268813        2.9542254090       12.3442713899
  O         5.9696487620        2.4757147574       14.9320104023
  H         5.5481264900        1.9139726045       14.2085459057
  H         5.2437783844        3.0688329606       15.0592766367
  O         8.8340325281        5.1348968729       14.2712376901
  H         8.0005184636        4.8536659371       13.8526980176
  H         9.4203480468        4.2847026672       14.4127677007
  O         5.9218587627        8.8359743190       18.6501641359
  H         6.1278341606        9.7484518897       18.5777385579
  H         5.3644854645        8.8273794140       19.4920032189
  O         7.3522238358        8.6761811360       22.0682867014
  H         7.2533339284        7.8891461870       21.4845079388
  H         7.6993529031        9.4501357877       21.5866074630
  O         3.9979788021        2.8121654975        5.8868032890
  H         3.7714572879        3.1827210363        4.9899865421
  H         4.9379908852        3.2684972084        5.9462089205
  O         9.8381453398        2.1732790011       14.4665377437
  H         0.3387718630        2.3472081174       13.6720502192
  H         0.2182876640        2.0683169765       15.2911280205
  O         4.0999775764        1.9320948652       10.3644500295
  H         4.9023932916        1.4464446687        9.9253038213
  H         3.9110381300        2.6658290826        9.6448366346
  O         6.2740071677        4.0497076664        6.1939402989
  H         7.1304530877        3.5739774708        6.0747497896
  H         6.4865303284        5.0242670035        6.1720231198
  O         8.2610428362        7.3717597808       19.0785171251
  H         8.2789905626        6.6482050210       18.4096865138
  H         7.3728448417        7.7445319815       19.0026073011
  O         8.6979075699        0.4113898971       18.5784440288
  H         9.5563561615       -0.0126802375       18.4087004821
  H         8.5288229048        1.2471618861       18.0095819718
  O         6.3664727860        0.7793690166        9.6698664072
  H         7.0010531729        1.4872323531        9.5657397565
  H         6.7558140817        0.2591086141       10.4597747265
  O         2.9031691806        6.4231952609        6.0875716716
  H         2.5369389062        6.2977992730        5.2299719231
  H         2.3941466006        5.8751747920        6.6907015020
  O         3.2878898798        6.3431918996       18.4436765384
  H         3.2186977309        7.3027941701       18.2918345111
  H         2.5658060398        5.9332962110       17.8964402610
  O         7.0201577182        7.0734015813       12.3447017958
  H         7.8679683611        6.8413423076       11.8876811222
  H         6.3623638543        6.4669302638       11.9379097233
  O         7.3657521836       10.4207818188        5.1300528974
  H         6.4431178207       10.2157870762        5.4058901855
  H         8.0523688849        9.8108221832        5.5906013850
  O         2.6855141569        9.9973726296       14.5063330725
  H         2.5235534145        9.0875815087       14.0481701053
  H         3.3404657766        0.2164539840       13.8251253657
  O         0.3984278706        7.8172584327       16.1746169209
  H         9.7081773280        8.0312081386       16.3691326424
  H         0.3983278799        7.7420909779       15.1583490533
  O         1.8358350748        8.8557627256       20.3954593639
  H         1.6724636637        9.6275698358       21.0280492666
  H         1.2099072901        8.0815970146       20.7192425349
  O         4.4546341064        6.2798408536       15.2573957664
  H         5.4690012450        6.1028658820       15.2910223090
  H         4.3141445742        7.1372560401       16.0056953929
  O         2.9319013087        8.9416253950        7.0148832152
  H         2.4537757850        9.7262592230        6.6698788974
  H         2.6670443706        8.0599066501        6.6790078997
  O         5.2247002521        5.2742210975       11.3796703223
  H         5.7576605248        4.6091514732       11.9346189139
  H         5.3066019620        5.0023092510       10.3748707617
  O         9.2191052177        9.2020287625        6.4387675242
  H         9.3745137185        8.2135740359        6.1973923914
  H        -0.1430921520        9.6951270706        6.4736859060
  O         0.6527521246        3.4079058320        5.8206189134
  H         0.6523160416        4.1165519566        6.4600781089
  H         1.0189180675        3.9075085860        4.9860884833
  O         0.9475000433        9.7027830244       18.0602004372
  H         1.3844012050        9.3796483144       18.8604333766
  H         0.9914181781        8.9894584809       17.3489482289
  O         9.3833563390        3.8913319311       20.9630697843
  H         9.8246329316        4.6913437732       21.4456481980
  H         9.3630487836        3.1049441750       21.5891164304
  O         5.6889030082        1.7519436335       21.0568612298
  H         5.7682854351        2.7354530357       21.1502081196
  H         4.8223333351        1.5792397821       21.5567128361
