274
traj_3000
Cu    9.696142    0.076168    25.860004
Cu    1.966976    2.739290    25.927909
Cu    9.661790    0.037931    3.067330
Cu    1.937429    2.713321    3.034302
Cu    2.135773    0.021061    25.905186
Cu    9.753192    2.612411    25.891182
Cu    1.948369    0.150700    3.134706
Cu    9.731006    2.564768    3.054383
Cu    3.272568    1.345465    24.137290
Cu    0.692567    3.998465    24.252490
Cu    3.114507    1.399959    1.396667
Cu    0.699621    3.902156    1.251610
Cu    0.758818    1.349964    24.001481
Ag    3.366219    3.891728    23.685209
Cu    0.694101    1.322461    1.207221
Cu    3.307841    4.045597    1.303661
Cu    4.545955    0.140476    25.895145
Cu    7.200591    2.648808    25.852870
Cu    4.671811    0.283713    3.301165
Cu    7.031896    2.714445    3.246735
Cu    6.981697    0.086392    25.853663
Cu    4.563540    2.571004    25.935571
Cu    7.150187    0.105613    3.038530
Cu    4.284428    2.772619    2.994405
Cu    8.363457    1.400981    24.195154
Cu    5.900622    3.769756    24.154200
Cu    8.319085    1.435742    1.328234
Cu    5.778139    4.105407    1.237342
Cu    5.699211    1.361517    24.087352
Cu    8.373885    3.981698    24.166882
Cu    5.781002    1.369900    1.389533
Cu    8.236067    3.846333    1.287280
Cu    9.429810    5.281258    26.009553
Cu    1.861261    7.710865    25.879556
Cu    9.538694    5.224106    3.145539
Cu    1.860136    7.770880    3.163506
Cu    1.903486    5.200080    26.069531
Cu    9.579181    7.733256    26.054998
Cu    1.778447    5.245474    3.072614
Cu    9.623655    7.715159    3.054119
Cu    3.089663    6.413861    24.168468
Cu    0.594111    8.897656    24.066214
Cu    3.138840    6.602595    1.288601
Cu    0.736428    9.067168    1.346465
Cu    0.622227    6.373375    24.066479
Cu    3.327164    9.071155    24.157370
Cu    0.549535    6.578671    1.273540
Cu    3.279520    9.214699    1.424938
Cu    4.400162    5.166443    25.883255
Cu    7.053571    7.894589    25.996342
Ag    4.448930    5.262139    3.479777
Cu    6.941721    7.844901    3.069972
Cu    7.003780    5.285654    25.908092
Cu    4.411920    7.740515    25.917604
Cu    6.989774    5.332786    3.006824
Cu    4.509149    7.948878    3.092167
Cu    8.367342    6.595029    24.310090
Cu    5.849298    9.062772    24.144952
Cu    8.264183    6.457620    1.386627
Cu    5.761474    9.083117    1.211449
Cu    5.679172    6.300887    24.162126
Cu    8.331865    9.108575    24.068064
Cu    5.690929    6.564766    1.312381
Cu    8.347508    9.199670    1.319250
 O    5.673038    7.222163    5.821031
 H    5.430322    7.269806    4.855835
 H    5.155606    7.908800    6.312744
 O    8.403841    7.275634    6.080231
 H    7.451690    7.044881    6.158440
 H    8.782432    6.704118    5.360760
 O    0.885185    1.058174    16.416253
 H    0.618955    0.314487    16.973493
 H    1.596564    0.552193    15.776576
 O    4.666597    0.668030    5.439233
 H    3.945505    0.020141    5.847981
 H    4.328288    1.538492    5.865156
 O    0.792352    1.192107    6.031878
 H    0.607811    2.191800    6.143643
 H    0.856763    1.209283    5.059549
 O    6.546056    2.114303    11.905753
 H    6.906142    2.134955    12.786398
 H    7.377464    2.560269    11.468998
 O    0.987731    5.202125    17.339437
 H    0.875166    4.380430    16.758946
 H    0.323075    5.848582    16.988025
 O    8.030056    1.510683    21.155831
 H    8.130761    1.255597    20.219964
 H    7.459766    2.284530    21.246459
 O    6.428584    3.652182    21.719412
 H    7.226457    4.299354    21.805812
 H    5.872915    4.157447    21.048029
 O    1.689602    7.746854    13.549202
 H    2.249462    7.240770    14.269730
 H    2.089049    7.598300    12.649533
 O    6.769755    3.909926    17.938688
 H    7.057763    4.356404    17.128062
 H    7.617828    3.563336    18.306747
 O    0.349964    1.523259    21.941621
 H    9.629789    1.749412    21.689291
 H    0.947449    2.135670    21.391780
 O    5.145178    5.121458    19.730364
 H    4.496676    5.498107    19.112618
 H    5.859010    4.765258    19.134812
 O    7.905937    3.839688    8.541440
 H    7.582760    4.755034    8.642372
 H    8.532560    3.831815    7.791319
 O    7.082913    4.493915    15.096738
 H    6.669868    3.656578    15.153017
 H    8.072382    4.471934    15.136107
 O    8.821590    3.382577    11.053379
 H    8.608013    3.605049    10.125703
 H    9.648806    2.788875    11.035677
 O    4.050300    8.741843    16.672282
 H    3.526019    9.397707    16.187967
 H    4.949697    9.088536    16.887357
 O    4.321131    5.521213    9.259854
 H    4.746037    5.024945    8.527700
 H    4.614660    6.426437    9.167113
 O    7.293935    3.065534    5.234991
 H    7.245985    2.121766    5.794873
 H    8.204680    3.389734    5.438969
 O    4.604231    0.516102    13.286831
 H    4.940188    1.195890    12.650854
 H    4.952764    9.875878    12.884953
 O    3.021162    7.833859    10.890884
 H    3.634392    7.922398    10.106679
 H    2.526632    8.659030    10.863141
 O    3.284530    8.722214    21.532080
 H    3.639606    9.631323    21.499317
 H    2.293527    8.868109    21.486635
 O    8.467536    7.627132    20.936793
 H    8.030771    7.567424    20.039237
 H    7.738368    8.137611    21.482407
 O    2.375625    3.591963    13.123807
 H    3.196809    3.609548    12.608578
 H    2.745117    3.614046    14.052541
 O    8.840606    5.996113    11.710495
 H    8.912276    5.018606    11.612205
 H    9.635924    6.330639    11.122605
 O    3.448317    3.762906    15.603248
 H    3.456394    4.778446    15.601398
 H    3.051834    3.535731    16.499218
 O    1.891013    5.783047    20.926488
 H    2.075758    6.355176    21.757989
 H    2.448011    6.241180    20.263032
 O    9.454552    3.436457    18.871121
 H    9.951842    4.097637    18.477697
 H    9.631834    3.490235    19.877006
 O    6.088026    8.659132    12.488623
 H    6.672424    8.964520    13.235837
 H    5.910743    7.728348    12.753899
 O    2.679480    2.392290    18.145573
 H    1.951640    1.839382    17.755320
 H    3.555259    1.926592    18.113338
 O    0.240159    6.037213    7.451797
 H    0.678560    6.003781    8.321873
 H    9.641035    6.598505    7.583907
 O    7.706367    9.084344    14.456269
 H    8.093853    9.975970    14.398669
 H    8.467230    8.429606    14.208695
 O    9.772924    8.815353    9.019942
 H    9.606581    8.968507    8.059767
 H    8.986092    8.994476    9.546797
 O    9.383904    7.109087    13.949231
 H    0.158470    7.326345    13.859396
 H    9.012572    6.642263    13.110332
 O    4.537060    8.539717    8.705785
 H    4.101624    9.166033    8.110761
 H    5.282894    9.042631    9.084676
 O    3.390756    1.502811    9.477307
 H    4.369081    1.407729    9.370827
 H    3.108577    1.947653    8.659810
 O    5.125446    6.698699    21.977820
 H    4.574786    7.486451    21.853108
 H    4.870359    6.093547    21.303266
 O    6.827725    9.329309    16.831342
 H    7.180858    10.159387    17.250660
 H    7.209076    9.158467    15.927182
 O    5.341886    1.367447    18.404773
 H    5.525405    1.662099    19.290966
 H    5.771085    1.985993    17.816619
 O    1.747162    10.080050    10.364822
 H    1.025150    9.742763    9.767685
 H    2.460075    0.422349    9.847744
 O    2.065535    3.099375    20.709564
 H    2.104283    4.080461    20.836389
 H    2.143032    2.943768    19.748067
 O    7.256515    6.277679    9.644558
 H    7.306817    7.175337    9.311641
 H    7.722214    6.208566    10.513050
 O    0.896125    6.686942    10.007861
 H    0.747572    7.613636    9.609417
 H    1.755239    6.781104    10.498782
 O    0.495552    1.878028    11.830979
 H    0.995910    1.214599    11.293555
 H    1.196912    2.325835    12.346736
 O    5.556485    1.953787    15.725582
 H    5.386871    1.234638    15.040988
 H    4.759430    2.564972    15.744870
 O    9.806458    3.882322    14.804775
 H    0.033637    4.262037    14.031403
 H    9.698187    2.919639    14.463931
 O    5.184335    8.859418    19.603010
 H    5.187709    9.624268    19.043392
 H    4.239442    8.754010    19.749388
 O    6.604333    9.455983    22.005298
 H    5.981493    9.430730    21.193086
 H    7.226968    0.064308    21.797622
 O    3.556384    2.789693    6.478410
 H    2.947653    2.900316    5.714550
 H    4.129331    3.612411    6.636414
 O    9.263365    1.262652    14.302229
 H    9.992124    1.071465    13.649869
 H    9.746239    1.179531    15.165435
 O    5.772721    1.650546    8.892324
 H    6.041303    2.581637    8.954152
 H    6.246905    1.423678    8.026475
 O    5.546159    4.853694    6.914902
 H    6.278293    4.370002    6.516194
 H    5.378180    5.708924    6.385141
 O    7.300785    7.400672    18.463165
 H    6.447089    6.986502    18.510725
 H    7.125752    8.162353    17.846211
 O    8.586542    1.045496    18.566739
 H    9.167567    0.240671    18.442292
 H    9.049174    1.893160    18.364611
 O    7.259787    9.430423    9.841931
 H    6.969428    0.149882    9.798070
 H    6.940597    9.275327    10.793915
 O    2.337081    6.911459    6.283152
 H    2.590838    6.522133    5.414132
 H    1.640118    6.391778    6.660458
 O    3.111746    6.585214    18.543752
 H    3.325732    7.435025    18.078989
 H    2.587362    6.062875    17.915173
 O    5.481135    6.151823    13.594383
 H    6.178916    5.600550    14.081341
 H    5.417849    5.555054    12.811235
 O    6.916162    0.895818    6.694278
 H    6.135567    0.579491    6.125941
 H    7.656576    0.241591    6.724663
 O    2.361414    10.025454    14.814815
 H    1.991309    9.243939    14.373040
 H    2.993660    0.289234    14.246478
 O    9.445043    6.877720    16.682058
 H    8.636026    6.740004    17.304032
 H    9.262751    6.868723    15.719769
 O    0.518352    9.152026    20.924110
 H    0.252837    10.136997    21.185952
 H    9.916570    8.647477    21.111442
 O    3.497903    6.364787    15.083791
 H    4.284223    6.200489    14.366434
 H    3.723340    7.089559    15.760195
 O    2.829362    9.435228    6.613427
 H    2.137000    10.094159    6.547372
 H    2.486452    8.509352    6.511438
 O    4.989263    4.494120    11.805878
 H    5.535628    3.670687    11.683280
 H    4.790715    4.821182    10.905945
 O    9.015333    9.632243    6.632450
 H    8.812388    8.933644    6.001493
 H    9.669458    0.126674    6.342601
 O    9.882217    3.907370    6.059093
 H    10.099680    4.705345    6.691107
 H    9.974437    4.240465    5.140929
 O    0.212759    9.238623    18.219819
 H    0.483795    9.032304    19.142475
 H    10.072484    8.414270    17.799180
 O    9.067168    5.072895    21.520191
 H    8.838357    6.021673    21.315156
 H    9.638684    5.109905    22.303603
 O    4.189652    1.297106    20.818422
 H    4.610979    1.488702    21.691405
 H    3.444534    2.051119    20.811817
