274
traj_3500
Cu    9.823225    0.056538    25.883255
Cu    2.020754    2.657498    25.793421
Cu    9.652997    0.197015    2.988064
Cu    2.114507    2.605765    3.187286
Cu    2.039873    0.144259    25.810331
Cu    9.728348    2.724976    25.965692
Cu    1.956752    0.128208    2.991499
Cu    9.771288    2.732542    3.151616
Cu    3.409262    1.341376    24.061194
Cu    0.602801    4.065023    23.951807
Cu    3.338001    1.503118    1.296792
Cu    0.811369    3.940291    1.479632
Cu    0.855638    1.380840    23.881789
Ag    3.274920    3.946119    23.983249
Cu    0.676413    1.450056    1.224131
Cu    3.296185    4.015743    1.402744
Cu    4.719046    0.141192    25.965428
Cu    7.109496    2.883038    25.919189
Cu    4.587362    0.378898    3.088468
Cu    7.111029    2.792352    3.054119
Cu    7.226150    0.218587    26.024613
Cu    4.532562    2.793476    25.927380
Cu    7.049686    0.266435    3.149767
Cu    4.558428    2.772722    3.103264
Cu    8.498310    1.484919    24.390148
Cu    6.017583    4.011245    23.943616
Cu    8.478680    1.431039    1.382135
Cu    5.863509    4.130967    1.365753
Cu    5.894692    1.488702    24.194361
Cu    8.386665    4.045904    24.246677
Cu    5.822204    1.548103    1.275654
Cu    8.472955    4.031386    1.470649
Cu    9.719248    5.189958    26.044165
Cu    1.944484    7.651362    25.923945
Cu    9.747568    5.193741    3.190192
Cu    2.050301    7.861157    3.022413
Cu    1.858092    5.128104    26.029633
Cu    9.630607    7.762189    25.939534
Cu    1.932624    5.312645    3.155315
Cu    9.766278    7.818216    3.017128
Cu    3.177179    6.466821    24.314846
Cu    0.740824    8.984457    24.075198
Cu    3.324301    6.587565    1.304718
Cu    0.723750    9.138633    1.218318
Cu    0.582353    6.450361    24.012578
Cu    3.188937    8.902665    24.264379
Cu    0.751763    6.396072    1.332726
Cu    3.257641    9.145585    1.243419
Cu    4.551680    5.278497    25.938742
Cu    6.908391    8.056024    25.934514
Ag    4.434003    5.391676    3.505143
Cu    7.090172    7.992534    3.107756
Cu    6.956546    5.380532    25.808745
Cu    4.510069    7.907369    25.872951
Cu    7.219198    5.315712    3.221899
Cu    4.547182    8.029953    3.003653
Cu    8.486859    6.435332    24.281290
Cu    5.812901    9.132294    23.986420
Cu    8.298740    6.541149    1.380021
Cu    5.812389    9.142007    1.346729
Cu    5.794600    6.459664    24.005708
Cu    8.390652    9.026170    24.235051
Cu    5.859522    6.667925    1.275390
Cu    8.403739    9.097022    1.291772
 O    6.003679    6.730393    6.111409
 H    6.062977    7.382678    5.356532
 H    5.802268    7.195274    6.993111
 O    8.633777    6.676922    6.287908
 H    7.652487    6.362333    6.130432
 H    9.039768    6.627643    5.377670
 O    0.539208    1.062161    16.436862
 H    10.217868    0.522748    17.085522
 H    1.210612    0.409774    16.000371
 O    4.351599    10.131169    5.416246
 H    3.808301    9.416007    5.832921
 H    3.867701    0.799407    5.560510
 O    0.848584    0.404560    6.138887
 H    0.655659    1.391166    6.296891
 H    0.764748    0.390553    5.099182
 O    6.021673    2.211839    12.381085
 H    5.787034    2.076065    13.321972
 H    6.983230    2.386974    12.338546
 O    0.390553    5.324198    16.898454
 H    0.376035    4.753091    16.097603
 H    9.769141    5.848378    16.908495
 O    7.850728    1.391473    21.535780
 H    7.707185    1.204887    20.470709
 H    7.303443    2.130456    21.516227
 O    6.233001    3.804313    21.656264
 H    6.997442    4.334934    21.444888
 H    5.579182    4.146303    20.999941
 O    0.973213    6.893669    13.599668
 H    1.627747    6.726406    14.288753
 H    1.213475    6.386870    12.793532
 O    6.443817    3.947448    17.793896
 H    6.258458    4.399651    16.923819
 H    7.434616    4.002964    17.859951
 O    0.221859    1.554237    21.875831
 H    9.508431    1.878539    21.724961
 H    0.771495    2.180144    21.312514
 O    4.494631    4.425620    19.633924
 H    3.878948    5.093854    19.191091
 H    4.883344    3.959308    18.859231
 O    7.462220    3.568857    8.908970
 H    7.229422    4.526938    8.989293
 H    7.802778    3.457519    7.979708
 O    6.862691    4.476228    14.972819
 H    6.469582    3.594314    14.963571
 H    7.826804    4.345055    15.137692
 O    8.190264    3.084960    11.434385
 H    8.297717    3.271035    10.395472
 H    9.026988    2.609548    11.670597
 O    3.537674    8.500253    16.896869
 H    3.035987    8.927407    16.150183
 H    4.505877    8.837846    16.871240
 O    3.224925    4.197933    8.588471
 H    2.737960    4.752682    7.907048
 H    4.030773    3.891830    8.128728
 O    8.044267    3.182393    5.949706
 H    7.842345    2.244964    5.654572
 H    8.282484    3.719353    5.206719
 O    4.047744    0.359779    13.204395
 H    3.841119    0.940394    12.466428
 H    4.821285    10.055206    12.896842
 O    3.068397    7.389630    10.832756
 H    3.640629    7.622224    10.032169
 H    2.689601    8.260093    11.053379
 O    3.347918    8.940085    21.681365
 H    3.431141    9.925873    21.766444
 H    2.331049    8.912378    21.470253
 O    8.331047    7.437785    20.961101
 H    7.670174    7.341169    20.163685
 H    7.809935    7.738470    21.734473
 O    2.297617    3.342193    12.687844
 H    2.924035    3.758715    12.075118
 H    2.710765    3.309885    13.598347
 O    8.435740    5.732643    11.934025
 H    8.153458    4.819751    11.893071
 H    9.244962    5.854716    11.399772
 O    3.167058    3.744401    15.580789
 H    3.130660    4.720170    15.399798
 H    2.671096    3.613433    16.406212
 O    2.340148    5.842652    21.147376
 H    1.881300    6.450667    21.791809
 H    2.341375    6.367138    20.269373
 O    9.032100    3.658623    18.625660
 H    9.641342    4.186789    18.099070
 H    8.992942    4.130660    19.525594
 O    5.743685    8.739799    12.563925
 H    6.423881    8.890090    13.337826
 H    5.534095    7.769857    12.584799
 O    2.197832    2.693486    17.839342
 H    1.447091    2.157652    17.464149
 H    2.995296    2.092117    17.927063
 O    0.103261    5.587770    7.884853
 H    0.202433    5.804313    8.859297
 H    9.560267    6.012471    7.556956
 O    7.586952    9.484303    14.464988
 H    8.151515    0.038646    14.607667
 H    8.234942    8.746546    14.320724
 O    9.358958    8.367240    9.589601
 H    9.203248    8.506694    8.627576
 H    8.585316    8.925362    10.014995
 O    8.679784    7.137100    14.312533
 H    9.689497    7.225537    14.294830
 H    8.503524    6.570696    13.515910
 O    5.191594    8.130761    8.461910
 H    4.500356    8.797257    8.183686
 H    5.864634    8.692053    8.953095
 O    3.271852    1.262447    9.391964
 H    4.273079    1.241999    9.181117
 H    3.024741    2.178918    9.162357
 O    4.929658    6.464776    22.012697
 H    4.439217    7.299967    21.937394
 H    4.121663    5.855943    22.008205
 O    5.893260    9.867495    16.503181
 H    5.680808    0.616297    16.228921
 H    6.511602    9.583373    15.787145
 O    4.404558    1.312749    18.442028
 H    4.500765    1.380635    19.420698
 H    5.278191    1.547490    18.098277
 O    1.464165    9.676103    10.699325
 H    0.793784    9.427867    10.048022
 H    2.036805    0.019016    10.137329
 O    1.891422    3.341273    20.589344
 H    1.913198    4.314384    20.787773
 H    1.809733    3.160310    19.594291
 O    6.866473    6.265104    9.719597
 H    5.961863    6.573661    9.723560
 H    7.224514    6.265308    10.643046
 O    0.638176    6.324607    10.401020
 H    0.251508    7.157241    10.066518
 H    1.602187    6.500151    10.530224
 O    0.414170    1.692669    11.980792
 H    0.918208    0.833657    11.721063
 H    1.191187    2.315407    12.185034
 O    5.183313    1.834474    15.189479
 H    4.616500    1.255904    14.529194
 H    4.602698    2.627747    15.354881
 O    9.523665    4.164706    14.780203
 H    9.556075    4.752375    13.990185
 H    9.393924    3.164808    14.419014
 O    5.020753    8.772822    19.399561
 H    4.964624    9.515486    18.706776
 H    4.192924    8.725690    19.940948
 O    6.213575    9.579385    21.954568
 H    6.010529    9.193944    21.058862
 H    6.791737    0.131684    21.820080
 O    3.440036    2.340864    5.932003
 H    3.166342    2.094366    6.896670
 H    4.203863    2.953787    6.140737
 O    9.257946    1.739290    14.327065
 H    9.837743    1.634188    13.539690
 H    9.856146    1.465903    15.117876
 O    5.886513    1.320314    8.648185
 H    6.227684    2.281668    8.758365
 H    6.215109    1.028524    7.712846
 O    5.484611    4.019424    6.553184
 H    6.325118    3.675083    6.167687
 H    5.373580    4.836109    6.046146
 O    6.602697    6.735301    18.903884
 H    6.246087    5.829770    19.139568
 H    5.884366    7.510068    19.029653
 O    7.749716    1.002760    18.937969
 H    8.297717    0.123914    18.675598
 H    8.279416    1.788365    18.530805
 O    6.936405    9.571820    10.014731
 H    6.404251    0.166241    9.938635
 H    6.583578    9.129125    10.809240
 O    2.183621    5.950923    6.697184
 H    2.279521    5.823738    5.702132
 H    1.197525    5.907676    6.948193
 O    2.364686    6.671504    18.451539
 H    2.689192    7.514260    18.031958
 H    1.750638    6.272465    17.833529
 O    5.408341    6.132193    13.237950
 H    5.955626    5.577751    13.842486
 H    4.919434    5.518248    12.590876
 O    6.885592    0.861773    6.000965
 H    6.112768    0.374297    5.561303
 H    7.591144    0.168081    6.224231
 O    2.010939    9.733971    14.887740
 H    1.492076    9.022592    14.517832
 H    2.745731    9.857987    14.156643
 O    8.514055    7.041200    17.022638
 H    7.679785    6.913197    17.597052
 H    8.174315    7.054287    16.047137
 O    0.604335    8.998259    20.746554
 H    0.272467    9.917285    20.980918
 H    10.035985    8.452712    21.059655
 O    3.437991    6.494630    15.149054
 H    4.100602    6.449236    14.370926
 H    3.715774    7.152538    15.846859
 O    2.819036    8.513953    6.995489
 H    1.924445    8.856249    6.896935
 H    2.760453    7.547283    6.841448
 O    4.326346    4.516510    11.203456
 H    4.910130    3.766485    11.353533
 H    3.936406    4.575809    10.285556
 O    8.853897    9.253243    6.914902
 H    8.872607    8.328798    6.468370
 H    9.765358    9.646556    6.659137
 O    0.666087    3.039157    6.501133
 H    0.303957    3.883957    6.833786
 H    1.229117    3.231161    5.743350
 O    9.483383    9.329615    18.125228
 H    9.934973    8.957874    18.917359
 H    9.158058    8.548816    17.601808
 O    8.732131    4.872302    21.206826
 H    8.774867    5.892851    21.180404
 H    9.440749    4.650954    21.885607
 O    3.984867    1.633984    21.271031
 H    4.729065    2.271444    21.411596
 H    3.145792    2.165013    21.144206
