274
traj_4500
Cu    9.474079    0.113690    25.894088
Cu    1.688375    2.678048    25.870573
Cu    9.517940    0.167263    3.125458
Cu    1.776198    2.586033    3.069972
Cu    1.688988    0.024231    25.914433
Cu    9.278189    2.636233    25.900694
Cu    1.675595    10.203248    2.929671
Cu    9.480111    2.764543    3.090581
Cu    3.104283    1.141396    24.392526
Cu    0.290563    4.022491    24.311939
Cu    3.152949    1.345363    1.406707
Cu    0.561803    3.819956    1.426524
Cu    0.474696    1.363766    24.131741
Ag    2.897862    3.954707    23.785877
Cu    0.447705    1.416112    1.259008
Cu    2.900929    3.853797    1.318458
Cu    4.336876    10.167566    26.066624
Cu    6.786932    2.676515    26.198998
Cu    4.354768    0.048052    3.260475
Cu    6.816172    2.672221    3.059139
Cu    6.906449    10.162045    26.120789
Cu    4.172271    2.692157    26.008496
Cu    6.876800    0.121767    3.119381
Cu    4.331662    2.534096    3.178038
Cu    7.879457    1.336570    24.337833
Cu    5.459051    3.727838    24.206515
Cu    8.147119    1.282588    1.328234
Cu    5.506593    4.069521    1.378436
Cu    5.486451    1.380431    24.455146
Cu    7.990694    3.868519    24.365312
Cu    5.611183    1.329311    1.359940
Cu    8.153867    3.856046    1.420975
Cu    9.256924    5.318473    25.944026
Cu    1.676720    7.725281    25.944819
Cu    9.520802    5.223186    3.347139
Cu    1.773847    7.707594    3.086618
Cu    1.762191    5.338409    26.006382
Cu    9.359571    7.790510    26.001626
Cu    1.791738    5.204374    3.167469
Cu    9.525505    7.809730    3.080013
Cu    3.013903    6.563642    24.193304
Cu    0.451181    8.811264    24.208365
Cu    3.114813    6.438194    1.352278
Cu    0.427359    9.069724    1.203522
Cu    0.533176    6.341681    24.186963
Cu    2.851037    8.934359    24.080482
Cu    0.560474    6.405580    1.326649
Cu    2.954094    8.989262    1.290186
Cu    4.223595    5.140781    25.807424
Cu    6.924852    7.670276    25.868195
Ag    4.407830    5.263366    3.568820
Cu    6.795315    7.547385    3.199968
Cu    6.666596    5.261117    25.935307
Cu    4.357631    7.739083    25.940855
Cu    7.070543    5.238420    3.053326
Cu    4.222368    7.782228    3.146596
Cu    8.120946    6.518043    24.001745
Cu    5.505979    8.938756    24.145480
Cu    8.181063    6.482771    1.333783
Cu    5.544830    8.948468    1.440263
Cu    5.667823    6.419894    23.930405
Cu    8.132908    9.136282    24.199381
Cu    5.614046    6.523871    1.272748
Cu    8.115936    8.963191    1.446869
 O    6.502809    7.216233    6.467049
 H    6.046619    7.620077    5.684693
 H    6.172884    7.763825    7.257595
 O    9.110108    7.029851    6.285265
 H    8.091297    6.942335    6.278924
 H    9.404659    6.578875    5.468033
 O    0.970044    1.136182    16.267761
 H    0.415090    0.564564    16.849838
 H    1.519578    0.529496    15.724525
 O    4.792658    0.348839    5.285457
 H    4.181677    10.044368    5.947064
 H    4.527245    1.230446    5.491548
 O    1.398630    0.841222    6.087893
 H    1.352213    1.775482    6.429001
 H    1.808915    0.802781    5.191130
 O    6.986911    2.206011    11.917115
 H    6.861362    2.090276    12.862758
 H    7.893771    2.562723    11.833621
 O    1.127696    5.811980    17.090806
 H    1.202740    5.306000    16.210690
 H    0.278704    6.377873    16.914572
 O    7.897349    1.050915    21.188859
 H    7.936507    0.989162    20.227362
 H    7.236681    1.804723    21.317798
 O    6.425210    3.458950    21.405255
 H    7.130761    4.058479    21.675552
 H    6.094569    3.959410    20.619993
 O    2.599018    7.047641    14.018192
 H    3.341886    6.549124    14.516511
 H    3.006951    7.389017    13.184314
 O    7.667823    3.568039    17.146293
 H    7.790510    3.696656    16.172906
 H    8.547794    3.824454    17.531261
 O    0.373070    1.749412    21.861827
 H    9.689599    1.840098    21.487692
 H    0.928739    2.385543    21.275259
 O    5.832224    4.999385    18.885124
 H    4.968202    5.244350    18.511782
 H    6.240464    4.504446    18.145837
 O    8.364786    4.217359    8.869337
 H    7.825578    5.047539    9.086790
 H    8.388403    4.007053    7.868736
 O    8.515384    4.325732    14.527080
 H    8.506796    3.446068    14.132335
 H    9.488188    4.632654    14.528665
 O    9.498514    3.202841    11.166466
 H    9.402001    3.321643    10.189909
 H    0.195072    2.882117    11.331603
 O    5.060626    8.449542    16.594073
 H    4.293527    8.981389    16.416253
 H    5.855534    8.983025    16.289163
 O    4.490644    5.253653    9.168170
 H    3.920354    5.985071    8.884926
 H    4.993966    5.010018    8.313154
 O    8.064203    3.702585    6.081288
 H    7.768733    2.742561    6.202564
 H    8.084651    3.728963    5.041846
 O    4.637152    0.083018    13.385914
 H    4.156527    0.149064    12.563661
 H    5.329515    9.570491    13.112974
 O    3.656476    8.121355    11.193152
 H    4.531232    8.094159    10.758246
 H    3.314077    9.019627    11.131853
 O    3.063694    9.444839    21.934488
 H    3.362027    0.231469    21.778598
 H    2.136795    9.378895    21.539743
 O    8.535934    7.753806    20.780375
 H    8.188730    7.854204    19.838166
 H    7.801347    8.093750    21.318855
 O    3.258868    3.476433    13.654890
 H    3.870973    3.802064    12.943874
 H    3.780389    3.448010    14.531836
 O    9.463140    5.869848    11.598730
 H    9.735607    4.969633    11.408227
 H    10.108063    6.440239    11.069761
 O    4.674060    3.414680    16.114514
 H    4.818013    4.391778    15.970514
 H    3.947652    3.199978    16.786425
 O    3.097739    5.934872    20.939435
 H    2.595644    6.435229    21.574356
 H    3.076065    6.299558    20.040823
 O    10.040790    4.064205    18.785514
 H    0.396381    4.764746    18.416134
 H    9.581123    4.380634    19.538276
 O    6.742458    8.750227    12.629716
 H    7.483281    9.021263    13.228439
 H    6.638481    7.795110    12.620733
 O    2.823534    2.377568    17.500876
 H    2.007974    1.858092    17.084201
 H    3.517635    1.730702    17.852289
 O    0.774665    5.697064    7.597382
 H    0.918617    6.031692    8.559407
 H    10.072893    6.076882    7.492222
 O    8.783148    9.408339    14.111462
 H    9.228297    0.069523    14.116218
 H    9.532458    8.672423    14.013172
 O    0.043247    9.545135    9.346254
 H    9.904608    9.862587    8.434959
 H    9.412122    9.482054    9.842988
 O    0.013496    7.138327    13.891367
 H    0.990798    6.973620    14.118067
 H    10.006847    6.532050    13.164762
 O    5.615579    8.466718    8.592699
 H    5.031999    9.188832    8.390835
 H    6.435843    8.843162    8.973968
 O    3.852468    2.086289    9.224977
 H    4.808096    1.958286    9.568199
 H    3.785808    3.012779    9.061689
 O    5.651056    6.313769    21.862884
 H    5.970655    7.181574    21.505130
 H    4.731212    5.970655    21.533666
 O    7.047130    10.217254    16.384811
 H    6.837744    0.869645    15.905780
 H    7.917388    10.047435    16.032870
 O    4.766178    0.958184    18.831752
 H    4.679479    1.214599    19.836317
 H    5.711786    1.263981    18.533183
 O    2.405581    0.132604    10.599978
 H    1.587976    10.132294    10.069688
 H    2.675595    0.944484    10.160316
 O    2.095491    3.103158    20.377703
 H    2.307125    4.113893    20.342034
 H    2.030467    2.864430    19.417528
 O    6.976278    6.139247    9.965850
 H    6.005314    5.910641    9.937578
 H    7.294446    5.979243    10.856271
 O    1.178509    7.047743    10.055685
 H    0.874246    7.931395    9.729637
 H    2.052243    7.266330    10.359538
 O    1.311624    2.096820    12.563661
 H    1.554135    1.311522    12.028087
 H    2.153256    2.545035    12.830787
 O    6.177792    1.795828    14.705957
 H    5.535219    1.152540    14.230889
 H    5.632551    2.440138    15.256855
 O    1.033841    4.226458    14.821421
 H    1.881198    4.271034    14.307249
 H    1.046723    3.421019    15.393193
 O    4.487576    8.576012    19.598519
 H    4.573355    9.473057    19.204038
 H    3.914834    8.690622    20.368191
 O    6.326652    9.153764    21.776748
 H    5.640832    9.184743    21.039310
 H    6.810958    10.019626    21.606590
 O    4.061138    2.919128    5.561303
 H    3.150802    3.149881    5.707680
 H    4.635107    3.563438    6.011533
 O    9.586849    1.713219    14.207109
 H    10.173394    1.893569    13.396747
 H    0.047234    1.530416    14.886419
 O    6.750432    1.806972    9.204632
 H    7.316018    2.615069    9.100265
 H    6.636538    1.407115    8.329535
 O    5.632960    4.613535    6.900898
 H    6.480623    4.064920    6.625052
 H    5.855228    5.571923    6.700091
 O    7.053571    7.332786    18.291951
 H    6.723134    6.440853    18.712060
 H    6.288925    7.966565    18.305426
 O    7.421325    1.429710    18.497514
 H    7.562210    0.737348    17.842512
 H    7.561085    2.261220    17.999987
 O    7.757282    9.655349    10.190965
 H    7.638276    0.384930    10.110114
 H    7.510579    9.402307    11.145064
 O    2.625395    7.091502    6.376950
 H    2.664553    6.944891    5.420473
 H    1.956446    6.430424    6.796267
 O    3.377465    6.513340    18.337925
 H    3.679173    7.413554    18.205022
 H    2.558122    6.353336    17.815298
 O    6.737755    5.722726    13.249048
 H    7.490540    5.101828    13.398068
 H    6.073610    5.324096    12.642399
 O    7.162149    1.210408    6.493735
 H    6.385235    0.736530    6.093442
 H    7.938756    0.631121    6.546050
 O    2.710151    9.679784    15.266632
 H    2.376955    8.754214    15.121046
 H    3.189959    9.991409    14.452041
 O    9.193433    7.171964    16.509787
 H    8.259173    6.983639    16.810997
 H    9.169714    7.075246    15.515791
 O    0.728657    9.429298    20.751310
 H    0.379818    0.020346    21.231134
 H    0.040282    8.756055    20.921996
 O    4.723237    6.174929    15.296753
 H    5.484713    6.051526    14.607667
 H    4.965953    6.969121    15.881207
 O    3.251405    9.439727    7.016098
 H    2.532256    10.137406    6.890329
 H    2.915345    8.454143    6.779357
 O    5.106940    4.021469    11.576271
 H    5.917491    3.403230    11.488286
 H    4.980675    4.439013    10.702495
 O    9.352824    9.791225    6.908032
 H    9.254777    8.787749    6.715416
 H    10.092830    0.002863    6.396238
 O    1.381556    3.498823    6.422131
 H    1.140169    4.302115    6.996546
 H    1.155301    3.612206    5.437648
 O    9.878946    9.712807    18.162219
 H    0.060219    9.470296    19.066379
 H    9.621712    8.874345    17.724934
 O    8.761780    5.027092    21.151339
 H    8.705037    5.984764    20.882363
 H    9.409566    4.958183    21.862355
 O    3.953889    1.608424    21.392044
 H    4.677230    2.026377    21.923126
 H    3.333298    2.372558    21.081057
