274
traj_4000
Cu    9.682136    0.128412    25.954331
Cu    1.840404    2.692771    25.877178
Cu    9.613533    0.002249    3.166677
Cu    1.913096    2.647479    3.053062
Cu    1.943972    0.001943    25.912320
Cu    9.496878    2.701768    26.103351
Cu    1.842245    0.076577    2.988064
Cu    9.498105    2.732746    3.178038
Cu    3.163172    1.230344    24.304541
Cu    0.458031    3.951640    24.236372
Cu    3.176259    1.337286    1.294942
Cu    0.486351    4.051118    1.348315
Cu    0.695634    1.335650    24.119851
Ag    3.057048    3.982414    23.762361
Cu    0.706983    1.450158    1.325592
Cu    3.197218    3.962477    1.315287
Cu    4.563847    0.042225    25.868459
Cu    7.012982    2.624373    25.876121
Cu    4.605254    0.193232    3.047249
Cu    6.950821    2.737347    3.231675
Cu    7.179938    0.133217    25.964635
Cu    4.414067    2.702177    25.890125
Cu    6.967997    10.202532    3.178302
Cu    4.518759    2.672323    3.340798
Cu    8.271749    1.233514    24.148387
Cu    5.687965    4.011245    24.139139
Cu    8.262445    1.493303    1.430751
Cu    5.739391    3.925057    1.363639
Cu    5.740924    1.468357    24.245356
Cu    8.357936    3.947857    24.104262
Cu    5.772414    1.464880    1.361790
Cu    8.328798    3.987219    1.348050
Cu    9.568037    5.179530    25.937685
Cu    1.746856    7.697370    25.885369
Cu    9.775684    5.176054    3.307506
Cu    2.035885    7.640320    3.189664
Cu    2.055617    5.234228    26.019593
Cu    9.482974    7.657394    26.025142
Cu    2.075554    5.267762    3.167469
Cu    9.687861    7.658110    3.108020
Cu    3.164808    6.546363    24.108225
Cu    0.682036    9.038030    24.077312
Cu    3.264798    6.540740    1.403801
Cu    0.515080    9.112869    1.313966
Cu    0.570698    6.436047    23.893415
Cu    3.145076    9.041301    24.175073
Cu    0.765668    6.515998    1.240513
Cu    3.177384    9.002246    1.432337
Cu    4.494017    5.301399    26.046808
Cu    6.919229    7.753601    25.883520
Ag    4.441160    5.387075    3.629062
Cu    7.005825    7.828338    3.060196
Cu    6.996215    5.130864    25.829883
Cu    4.502197    7.750534    25.812180
Cu    7.210712    5.442898    3.284783
Cu    4.572230    7.830792    3.165620
Cu    8.308043    6.576933    24.254868
Cu    5.811776    9.095999    24.049040
Cu    8.450769    6.428482    1.359148
Cu    5.698291    9.090376    1.254781
Cu    5.726815    6.544318    24.101092
Cu    8.378895    8.966871    24.351572
Cu    5.807380    6.441466    1.453738
Cu    8.291481    9.013595    1.430487
 O    5.892749    6.945095    6.509588
 H    5.638788    7.280950    5.650345
 H    5.431140    7.383905    7.230909
 O    8.879457    6.664654    6.358719
 H    7.965645    6.587668    6.571151
 H    8.846025    6.423574    5.386653
 O    0.685819    1.381965    16.767137
 H    0.411921    0.646866    17.417647
 H    1.227788    0.811880    16.130895
 O    4.229730    0.153052    5.208833
 H    3.701972    9.708206    5.699225
 H    3.723238    1.032000    5.461956
 O    0.963705    0.283100    6.238234
 H    0.942439    1.277170    6.245104
 H    1.074941    0.000920    5.279116
 O    6.173395    2.316429    12.255845
 H    5.907267    1.993149    13.166875
 H    7.093546    2.415499    12.156234
 O    0.838053    5.680808    16.962660
 H    0.718433    5.129228    16.150976
 H    0.111338    6.338818    16.988025
 O    7.773333    1.753297    21.268389
 H    7.800529    1.541048    20.324859
 H    7.162762    2.492382    21.331537
 O    6.211121    3.952355    21.424014
 H    7.026886    4.463550    21.712807
 H    5.784274    4.521520    20.655134
 O    1.827420    7.494119    13.421055
 H    2.416521    6.926590    13.946060
 H    2.230344    7.630608    12.547808
 O    7.275429    4.013801    17.547643
 H    7.272567    4.284325    16.590902
 H    8.202226    4.210202    17.973037
 O    0.521930    1.430017    21.707787
 H    9.795519    1.618750    21.822194
 H    0.924343    2.307023    21.470253
 O    5.317655    5.010631    19.105748
 H    4.447192    5.233512    18.637022
 H    5.939984    4.500765    18.444670
 O    7.669561    3.316224    9.150731
 H    7.384212    4.324505    9.127216
 H    8.298944    3.266434    8.406688
 O    7.646353    4.701256    14.515718
 H    7.835495    3.791022    14.218999
 H    8.555564    5.034657    14.604760
 O    8.758917    3.173601    11.507309
 H    8.551270    3.333094    10.495083
 H    9.474795    2.537061    11.590803
 O    4.079745    8.636946    16.453244
 H    3.617011    9.345054    15.984253
 H    4.965953    9.034758    16.660921
 O    3.773641    4.624270    8.818342
 H    4.009916    5.580818    8.656376
 H    4.384622    4.196093    8.154093
 O    7.800836    3.365197    6.261750
 H    7.361412    2.480318    6.040069
 H    8.271646    3.615682    5.468033
 O    3.711685    0.133320    12.910318
 H    3.724056    0.755444    12.185562
 H    4.479704    9.733971    12.718494
 O    2.583068    7.928532    10.752961
 H    3.329413    7.996623    10.096375
 H    2.189244    8.861872    10.651237
 O    3.342397    9.351699    21.828800
 H    3.510376    0.054391    21.808455
 H    2.469072    9.218788    21.464969
 O    8.899087    7.715568    21.082642
 H    8.281052    7.682238    20.266202
 H    8.294650    8.219300    21.740022
 O    2.625702    3.502708    13.099499
 H    3.230650    3.848174    12.381085
 H    2.953276    3.563745    13.971425
 O    8.763109    5.937223    11.467148
 H    8.783659    5.003781    11.783684
 H    9.525096    6.122480    10.802106
 O    3.999181    3.902463    15.502844
 H    4.363254    4.805233    15.637332
 H    3.386360    3.736018    16.317170
 O    2.765054    6.087617    21.166928
 H    2.049892    6.363355    21.805548
 H    2.540128    6.589201    20.270694
 O    9.617112    3.972292    18.822240
 H    0.038442    4.445658    18.279796
 H    9.544215    4.426949    19.734592
 O    6.083425    8.808912    12.340924
 H    6.849604    9.191593    13.068321
 H    6.012982    7.857681    12.620468
 O    2.473059    3.070237    17.925477
 H    1.652591    2.583580    17.611584
 H    3.099886    2.418259    18.230123
 O    0.484613    5.069828    7.650490
 H    0.620386    5.447396    8.606174
 H    10.011447    5.720579    7.438850
 O    7.851853    9.197932    14.029289
 H    8.269908    10.115527    14.143432
 H    8.465082    8.360083    13.856754
 O    8.752374    8.707696    9.035531
 H    8.623553    8.907062    8.073771
 H    7.829360    8.990489    9.523810
 O    9.483690    7.142110    13.821084
 H    0.251099    7.225128    13.704035
 H    9.147732    6.516918    13.191976
 O    4.380123    7.844185    8.899722
 H    3.770574    8.307634    8.205352
 H    5.152437    8.442897    9.104229
 O    3.506798    1.429710    10.285028
 H    4.375625    1.623453    9.866239
 H    3.014108    2.278396    10.251208
 O    5.364685    6.930168    22.069504
 H    5.140781    7.861975    22.190517
 H    4.507411    6.504650    21.823779
 O    6.405887    9.766892    16.325890
 H    6.003781    0.362948    15.860070
 H    6.973927    9.386154    15.652921
 O    4.538798    1.335139    18.787099
 H    4.451997    1.645639    19.754408
 H    5.555565    1.312647    18.693037
 O    0.844187    10.157956    9.900323
 H    0.001738    9.833960    9.533058
 H    1.367447    0.461200    9.260383
 O    2.024434    3.505366    20.671780
 H    2.155300    4.506286    20.757916
 H    2.141703    3.305285    19.695751
 O    6.892033    5.663632    9.592243
 H    6.048766    5.522542    10.002841
 H    7.466207    6.002963    10.321754
 O    0.315305    6.574581    9.674151
 H    9.818216    7.167261    9.273594
 H    1.055311    7.099783    10.083164
 O    0.737041    1.411205    12.586648
 H    0.832532    0.846028    11.751713
 H    1.619466    1.793579    12.767375
 O    5.118596    1.491156    14.894610
 H    4.400469    1.140885    14.376739
 H    4.828952    2.394437    15.148261
 O    0.545343    4.108474    14.779410
 H    1.176566    4.132500    13.927300
 H    10.153151    3.296492    14.727359
 O    5.153050    9.080459    19.664838
 H    4.985685    9.818931    19.049205
 H    4.412022    8.816682    20.207546
 O    6.455166    9.478782    21.940300
 H    6.079540    9.376543    21.005490
 H    6.779366    0.216031    21.890363
 O    3.445148    2.648297    5.522991
 H    2.502300    2.994478    5.664348
 H    4.149983    3.320007    5.844811
 O    9.240974    1.698088    14.682705
 H    9.922908    1.526939    13.967462
 H    9.786010    1.731315    15.514998
 O    5.912788    1.351702    8.924031
 H    6.490950    2.148450    9.149674
 H    6.089866    1.323893    7.945624
 O    5.281871    4.257130    6.624524
 H    6.231876    3.888251    6.649096
 H    5.342806    5.264286    6.385933
 O    7.082811    7.288823    19.095972
 H    6.522950    6.425517    19.220155
 H    6.328492    7.931190    19.307084
 O    7.200591    1.436458    18.370688
 H    7.232694    0.882425    17.569837
 H    7.410794    2.419281    18.042527
 O    6.439421    9.249869    9.820001
 H    6.627745    0.025866    9.663847
 H    6.320619    9.139451    10.817959
 O    2.505264    6.088128    6.376950
 H    2.274818    5.958591    5.378462
 H    1.754319    5.570594    6.796531
 O    2.646354    6.925363    18.533448
 H    2.847152    7.731109    18.042527
 H    2.188324    6.365298    17.907511
 O    5.758407    6.179223    13.150494
 H    6.530005    5.744809    13.657003
 H    5.436048    5.485327    12.478318
 O    6.474796    1.007770    6.087893
 H    5.567834    0.568858    5.974014
 H    7.110620    0.250281    6.193053
 O    1.870974    9.854204    15.033061
 H    1.785093    8.878435    14.686933
 H    2.394028    0.012064    14.325480
 O    8.908391    7.364480    16.998065
 H    8.077801    7.425005    17.505103
 H    8.647579    7.433593    16.075937
 O    0.985277    9.224105    20.772184
 H    0.822513    10.158263    21.178554
 H    0.295777    8.660870    21.248572
 O    3.985890    6.508944    15.125538
 H    4.603515    6.590837    14.366170
 H    4.350678    7.172679    15.765479
 O    2.975768    8.704220    6.947401
 H    2.192004    9.244757    6.987562
 H    2.649115    7.756873    6.620561
 O    4.395255    4.493302    11.325262
 H    4.948163    3.702790    11.234106
 H    4.005417    4.618238    10.371956
 O    8.468763    9.580101    6.412091
 H    8.592575    8.676819    5.988018
 H    9.351495    9.978424    6.174821
 O    0.656374    3.023514    6.059621
 H    0.493610    3.766280    6.678953
 H    0.188222    3.211634    5.163916
 O    10.158467    9.469376    18.341888
 H    0.359779    9.207338    19.221477
 H    9.709638    8.697472    17.931026
 O    9.162966    4.937428    21.182517
 H    8.975664    5.926488    21.317270
 H    9.766176    4.697064    21.917842
 O    3.896022    2.008690    21.561937
 H    4.639913    2.595133    21.774106
 H    3.082608    2.555566    21.399970
