274
traj_2500
Cu    9.597482    0.221450    25.884841
Cu    1.835497    2.608628    25.921039
Cu    9.388607    0.067887    3.066802
Cu    1.893773    2.738165    3.177246
Cu    1.902054    0.159391    25.831204
Cu    9.604127    2.626724    25.786287
Cu    1.888252    0.162969    2.917253
Cu    9.518349    2.594826    3.039587
Cu    3.154584    1.430630    24.242978
Cu    0.504141    4.072895    24.061459
Cu    3.147632    1.336979    1.274597
Cu    0.614661    3.913504    1.256102
Cu    0.762907    1.412227    23.964226
Ag    3.151722    4.001634    23.943088
Cu    0.608629    1.451385    1.330612
Cu    3.121766    3.932010    1.307096
Cu    4.331253    0.083529    25.781531
Cu    6.941926    2.549943    26.010081
Cu    4.392801    0.087823    3.101150
Cu    6.912379    2.451385    2.929671
Cu    7.001327    0.025049    25.885105
Cu    4.386258    2.639811    25.971505
Cu    6.870359    10.169918    3.129157
Cu    4.333400    2.636642    3.069180
Cu    8.272566    1.285860    24.251168
Cu    5.749717    3.695122    23.902134
Cu    8.145790    1.371127    1.208542
Cu    5.630711    3.870053    1.333783
Cu    5.748592    1.320723    24.152614
Cu    8.256106    3.991104    24.122758
Cu    5.413351    1.361721    1.279089
Cu    8.322970    3.858193    1.330876
Cu    9.576114    5.267660    26.013780
Cu    2.013904    7.732029    25.854984
Cu    9.504546    5.321131    2.909326
Cu    1.732440    7.807277    3.182001
Cu    1.823024    5.234330    25.798969
Cu    9.452405    7.927612    25.913905
Cu    1.687761    5.276759    3.206045
Cu    9.523870    7.790816    2.984101
Cu    3.050096    6.572332    23.948372
Cu    0.647889    8.957057    24.141781
Cu    3.322870    6.447294    1.511074
Cu    0.734383    9.096920    1.175251
Cu    0.500460    6.582147    24.170581
Cu    3.217768    9.055308    24.066743
Cu    0.855331    6.560881    1.278296
Cu    3.209896    9.010221    1.366282
Cu    4.327163    5.264184    25.957237
Cu    6.891931    7.765154    25.939270
Ag    4.478579    5.273079    3.415572
Cu    6.926794    7.629176    3.151616
Cu    6.865758    5.141906    25.786815
Cu    4.525098    7.714648    26.008231
Cu    7.003474    5.066863    3.019770
Cu    4.438808    7.847866    3.179888
Cu    8.349859    6.489007    24.155521
Cu    5.752682    9.141802    23.949693
Cu    8.101009    6.457109    1.302869
Cu    5.720272    9.078721    1.421239
Cu    5.673344    6.362333    24.097392
Cu    8.389835    9.111437    24.163712
Cu    5.716182    6.499844    1.306832
Cu    8.247722    9.048969    1.218847
 O    6.049788    6.407114    6.188825
 H    5.908085    6.687760    5.260884
 H    5.697677    7.112665    6.865228
 O    8.731313    6.357834    5.998587
 H    7.706162    6.370001    6.119864
 H    8.920455    6.468355    5.052151
 O    1.492894    1.013188    16.632913
 H    1.330641    0.352418    17.333889
 H    1.705653    0.340967    15.890719
 O    4.282587    10.181369    5.413868
 H    3.714956    9.439522    5.683636
 H    3.865759    0.776914    5.775321
 O    0.880993    0.066967    6.161082
 H    0.699519    1.045598    6.301911
 H    1.161026    0.005419    5.222044
 O    6.852569    3.355586    12.528520
 H    6.886308    3.165422    13.498471
 H    7.825169    3.411409    12.287551
 O    1.372456    5.413555    17.133610
 H    1.422962    4.843573    16.311357
 H    0.772313    6.222061    16.959489
 O    7.660462    1.398936    21.376719
 H    8.026682    1.191698    20.450628
 H    7.172373    2.261015    21.492976
 O    6.648193    4.241692    20.627655
 H    7.621917    4.493915    20.577454
 H    6.390551    4.134852    19.676199
 O    2.396175    7.255288    13.392519
 H    3.159287    7.182085    13.941833
 H    2.805234    7.474080    12.502362
 O    7.233205    3.210816    17.592032
 H    7.266432    2.839279    16.694212
 H    8.089865    3.688067    17.884523
 O    0.330948    1.785809    21.854693
 H    9.621917    1.903588    21.650715
 H    0.791841    2.485226    21.394686
 O    5.977403    5.673447    17.919929
 H    4.964010    5.891011    17.894828
 H    6.191901    4.866883    17.379863
 O    7.997135    3.787137    8.684119
 H    7.710763    4.667619    9.104229
 H    8.760246    4.100091    8.138240
 O    7.895202    5.481646    15.007960
 H    7.665062    4.555974    14.913105
 H    8.849297    5.484918    14.678742
 O    9.494834    3.714343    11.605335
 H    9.314586    3.318576    10.723633
 H    0.037215    3.117881    11.929797
 O    4.435128    8.857169    16.751284
 H    3.887842    9.218788    16.016224
 H    5.280542    9.314177    16.969530
 O    4.372558    5.119004    9.502672
 H    4.658520    4.546977    8.779766
 H    4.801757    6.014414    9.335685
 O    7.419689    2.657294    5.496304
 H    7.351086    1.695736    5.632378
 H    8.286062    2.865964    5.819974
 O    4.489314    0.838973    13.825840
 H    4.053265    1.361926    13.179822
 H    5.150494    0.321542    13.253275
 O    3.406092    8.172679    11.096447
 H    4.345260    8.449644    10.867369
 H    2.942541    9.106019    10.867633
 O    3.289335    9.282586    21.819288
 H    3.378590    0.068500    21.733152
 H    2.362948    9.053468    21.643581
 O    8.576319    7.896020    20.857263
 H    8.418870    7.838051    19.904485
 H    7.821386    8.336568    21.357959
 O    3.062160    3.734382    13.454875
 H    3.745321    4.112359    12.861701
 H    3.456189    3.744503    14.372511
 O    9.622121    6.263161    11.294612
 H    9.618543    5.264593    11.485379
 H    0.089868    6.423779    10.580954
 O    4.204783    4.323381    15.742228
 H    4.316122    5.375011    15.694932
 H    3.880686    4.108576    16.658543
 O    2.439831    6.186584    20.913013
 H    2.219097    6.795929    21.619537
 H    2.653715    6.653612    20.038973
 O    9.715977    3.854001    18.610336
 H    0.192721    4.216439    18.034336
 H    9.670889    4.527756    19.288060
 O    6.372864    9.449542    12.644248
 H    7.126161    9.641035    13.231345
 H    6.135976    8.495959    12.914545
 O    3.343522    2.903383    17.883202
 H    2.661486    2.390041    17.434557
 H    3.943358    2.180758    18.142138
 O    0.284224    4.830179    7.583378
 H    0.669972    5.333093    8.360449
 H    9.905426    5.380225    7.034065
 O    8.257435    10.017786    14.643601
 H    8.810650    0.541560    14.804511
 H    8.817807    9.286164    14.308834
 O    9.954398    9.645227    9.269102
 H    9.693791    9.366933    8.342746
 H    9.207133    0.016052    9.474137
 O    9.968916    7.826498    13.701128
 H    0.719354    7.608831    13.709319
 H    9.681624    7.354154    12.894200
 O    5.155504    7.948367    8.007980
 H    4.312441    8.360594    7.626446
 H    5.564869    8.642876    8.583715
 O    3.480727    2.159697    9.301072
 H    4.439933    2.053879    9.136199
 H    3.103260    1.872098    8.421748
 O    5.431754    6.307635    21.759045
 H    4.495653    6.558121    21.858921
 H    5.641446    5.395765    21.318062
 O    7.085469    9.973414    17.048003
 H    7.868518    0.142214    17.527562
 H    7.419689    9.898473    16.091791
 O    5.364889    1.336059    18.908112
 H    5.026171    1.764236    19.748067
 H    6.249154    1.657601    18.783136
 O    2.071873    0.419793    10.599450
 H    1.351395    0.097332    10.018958
 H    2.803700    1.000818    10.194929
 O    2.219404    3.607605    20.606518
 H    2.339637    4.592576    20.694503
 H    2.370616    3.414885    19.660874
 O    7.401490    6.229320    9.733865
 H    7.898576    6.775072    9.091546
 H    8.055309    6.342908    10.525732
 O    1.539004    6.169408    9.306621
 H    1.688988    7.109700    9.033682
 H    2.408137    5.702585    9.204632
 O    1.208567    2.067170    12.460351
 H    1.495041    1.353849    11.780249
 H    1.949493    2.544115    12.860909
 O    6.138839    2.630814    15.222507
 H    5.641855    2.019016    14.634882
 H    5.488905    3.285348    15.338499
 O    0.354258    4.798996    14.544783
 H    1.101319    4.777833    13.898765
 H    0.040078    3.862589    14.590228
 O    5.120845    8.878741    19.719003
 H    5.154175    9.815046    19.455047
 H    4.221244    8.700539    20.045579
 O    6.432878    9.387687    22.034627
 H    5.779468    9.132499    21.216602
 H    6.913606    0.023719    21.773049
 O    3.378999    2.238932    6.402579
 H    2.977302    2.594928    5.555754
 H    4.175645    2.883140    6.465728
 O    9.851341    2.006645    14.755630
 H    0.037113    1.769655    13.910126
 H    0.378284    1.647275    15.385531
 O    6.213677    1.902975    8.629161
 H    6.855432    2.695736    8.636559
 H    6.297718    1.608526    7.685631
 O    5.585112    3.960125    6.839599
 H    6.297207    3.535629    6.315915
 H    5.708412    4.910846    6.580663
 O    7.955217    7.565073    18.174637
 H    7.206316    6.864020    18.059965
 H    7.411816    8.345361    17.848061
 O    8.879662    1.047745    18.933741
 H    9.679784    0.418771    18.888824
 H    9.236987    2.012984    18.806387
 O    6.246496    9.732948    9.665696
 H    6.121560    0.525611    9.644558
 H    6.587463    9.546976    10.605262
 O    2.874756    5.630199    6.216832
 H    3.321745    5.619873    5.319277
 H    2.220324    4.893670    6.245632
 O    3.296799    6.644104    18.569382
 H    3.682342    7.487882    18.273984
 H    2.508332    6.354665    17.907775
 O    6.347202    6.974745    13.478919
 H    6.947958    6.323993    13.938398
 H    5.813923    6.457824    12.799345
 O    6.814025    0.216338    6.381970
 H    6.233716    10.033633    5.710058
 H    7.388199    9.729779    6.749236
 O    2.537163    9.582146    14.870830
 H    2.317963    8.786215    14.287961
 H    3.318167    10.039461    14.415315
 O    10.076471    7.314894    16.683643
 H    9.184743    7.262241    17.190682
 H    9.868108    7.493301    15.745398
 O    0.633780    9.147323    21.150547
 H    0.531541    10.053263    21.502752
 H    10.003984    8.624882    21.175912
 O    4.318064    6.815150    15.211410
 H    4.999692    6.802779    14.466573
 H    4.581534    7.480214    15.871960
 O    2.715468    8.279723    6.821896
 H    1.982005    8.904506    6.639584
 H    2.400469    7.362639    6.586740
 O    4.971167    5.290868    12.069305
 H    5.829566    4.850423    12.132190
 H    4.754829    5.081994    11.126040
 O    8.974642    8.896633    6.938946
 H    8.916979    7.940392    6.576436
 H    9.657700    9.409566    6.386726
 O    0.029138    2.604232    6.137566
 H    0.409058    3.304467    6.750293
 H    0.350986    2.984050    5.244767
 O    0.523770    9.363150    18.379672
 H    0.780493    8.900007    19.205623
 H    0.329414    8.570286    17.799709
 O    9.171554    5.113688    20.951853
 H    8.885796    6.097125    21.196521
 H    9.501479    4.808198    21.859449
 O    4.042632    2.025661    21.366415
 H    4.570186    2.339228    22.128689
 H    3.199978    2.746753    21.252800
