274
traj_7000
Cu    9.566197    0.012269    25.957237
Cu    1.776198    2.656885    26.114712
Cu    9.577750    0.070238    3.263117
Cu    1.999693    2.711378    3.419535
Cu    1.857580    10.193535    26.093310
Cu    9.487064    2.688272    26.127130
Cu    1.909518    0.148144    3.215557
Cu    9.630914    2.635006    3.354009
Cu    3.177997    1.379000    24.337568
Cu    0.488293    3.815764    24.286046
Cu    3.286473    1.315407    1.515037
Cu    0.545650    3.914322    1.608043
Cu    0.574788    1.205193    24.441671
Ag    3.159696    3.957467    24.129363
Cu    0.626418    1.309375    1.535118
Cu    3.041610    3.849503    1.556520
Cu    4.388711    0.062877    26.130037
Cu    6.850524    2.761169    26.198734
Cu    4.422961    0.073101    3.257040
Cu    7.037826    2.581433    3.078427
Cu    6.942642    0.188529    25.997398
Cu    4.484305    2.601165    26.207718
Cu    6.929350    0.113996    3.348988
Cu    4.507820    2.509865    3.253605
Cu    8.380633    1.515591    24.404945
Cu    5.821080    3.902974    24.358706
Cu    8.317347    1.229322    1.368131
Cu    5.636436    3.978733    1.581621
Cu    5.785194    1.503629    24.493458
Cu    8.293628    3.994989    24.467829
Cu    5.736937    1.265412    1.485445
Cu    8.187913    3.928943    1.533004
Cu    9.650441    5.168079    26.080892
Cu    1.926387    7.639298    26.127659
Cu    9.438602    5.223595    3.286104
Cu    1.858194    7.678149    3.356122
Cu    1.724465    5.161127    25.916283
Cu    9.709842    7.705549    25.979960
Cu    1.620590    5.337796    3.395227
Cu    9.394231    7.714137    3.352688
Cu    3.125753    6.472649    24.393583
Cu    0.634597    8.871789    24.282082
Cu    3.130558    6.404149    1.494164
Cu    0.475105    9.028522    1.532212
Cu    0.736019    6.423779    24.093693
Cu    3.166853    8.970245    24.343117
Cu    0.569982    6.551986    1.494164
Cu    2.982414    9.051628    1.510546
Cu    4.370002    5.112359    26.196092
Cu    7.066248    7.815251    26.146947
Ag    4.374602    4.975256    3.477399
Cu    6.934565    7.727428    3.290067
Cu    6.974540    5.277475    26.023292
Cu    4.590122    7.640525    25.962257
Cu    6.949798    5.105918    3.295616
Cu    4.403843    7.773845    3.136027
Cu    8.493914    6.459358    24.264115
Cu    5.647785    9.189548    24.207044
Cu    8.267250    6.512011    1.459287
Cu    5.695632    9.004700    1.424674
Cu    5.786625    6.480317    24.235051
Cu    8.136793    9.036190    24.362934
Cu    5.740822    6.441057    1.440263
Cu    8.226354    9.127693    1.564711
 O    5.107963    7.294548    6.524913
 H    4.703198    7.748489    5.780341
 H    4.688272    7.613125    7.358527
 O    7.609342    6.475512    6.291607
 H    6.654839    6.698086    6.300854
 H    7.613943    6.097534    5.387446
 O    0.774051    0.939474    16.770043
 H    0.176465    0.342603    17.284480
 H    1.370003    0.295573    16.289956
 O    4.174009    0.330948    5.454558
 H    3.506900    9.896837    5.794609
 H    3.768121    1.230753    5.560774
 O    0.143953    0.558532    7.197089
 H    0.213986    1.536857    7.136318
 H    9.634697    0.379409    7.767011
 O    6.169510    1.765770    12.118450
 H    5.897452    1.661588    13.054053
 H    7.086083    2.213679    11.990039
 O    1.102648    5.431447    17.214461
 H    0.891217    4.945300    16.339365
 H    0.372150    6.068600    17.459393
 O    8.120742    1.108373    21.530759
 H    7.897656    1.120335    20.561072
 H    7.955626    2.028422    21.744249
 O    7.169408    3.910642    21.509358
 H    8.018196    4.391370    21.268653
 H    6.520394    3.820365    20.841145
 O    1.344852    7.005825    13.927565
 H    2.202944    6.588179    14.246478
 H    1.455781    7.257435    13.009136
 O    7.687248    3.213781    17.919929
 H    7.619770    3.413147    16.929897
 H    8.661790    3.242714    18.206343
 O    0.334117    0.913608    22.132388
 H    9.627029    0.782640    21.850994
 H    0.874143    1.590941    21.662341
 O    5.651874    4.015334    19.381858
 H    5.032408    4.668744    18.995833
 H    6.225537    3.587975    18.636229
 O    7.150289    3.563643    9.134878
 H    6.785807    4.507820    9.148618
 H    7.583271    3.443716    8.274842
 O    7.861259    3.832940    15.186044
 H    7.222572    3.108577    14.868452
 H    8.801449    3.754523    14.940320
 O    8.430526    3.070033    11.453937
 H    8.162557    3.128616    10.494554
 H    9.262444    2.483488    11.590010
 O    4.110826    7.814025    16.974550
 H    3.535220    8.475613    16.475438
 H    4.922194    8.286778    17.096619
 O    3.398424    5.562006    8.966306
 H    3.841119    6.481032    9.136992
 H    4.156936    5.027501    8.759686
 O    7.500458    3.386156    6.074154
 H    7.409567    2.426643    5.874403
 H    8.464367    3.526734    6.110880
 O    3.124526    0.011042    12.937268
 H    3.180144    0.978223    12.961048
 H    3.999181    9.866166    12.691015
 O    2.135159    7.430935    11.368858
 H    2.747060    6.731211    11.091163
 H    2.333298    8.200692    10.768286
 O    3.352621    8.678353    22.014546
 H    3.420712    9.642262    21.806341
 H    2.396789    8.517838    21.834877
 O    8.683158    7.426845    21.187538
 H    8.222163    7.001327    20.419714
 H    7.896531    7.994476    21.545556
 O    2.697678    2.900725    13.107954
 H    3.351394    3.362130    12.458501
 H    2.966771    2.978018    14.095080
 O    8.047334    5.629484    12.370252
 H    8.208054    4.700745    12.044733
 H    8.547283    6.203249    11.719214
 O    3.532664    3.348736    15.715013
 H    3.660361    4.356915    15.644995
 H    3.058480    3.223289    16.654843
 O    3.042530    5.533481    21.260198
 H    2.522850    6.291277    21.709108
 H    3.047745    5.761065    20.261975
 O    10.074427    3.500357    18.903091
 H    0.335855    4.068499    18.205551
 H    10.034042    4.034249    19.704471
 O    5.491257    8.977402    12.295742
 H    6.247621    8.994272    12.982450
 H    5.248746    7.984661    12.369988
 O    2.438911    2.358449    17.970395
 H    1.654329    1.889888    17.683980
 H    3.113995    1.689602    18.275833
 O    0.646355    5.430322    8.254761
 H    1.577650    5.430527    8.616214
 H    0.161844    5.897759    9.037381
 O    7.448929    8.776707    14.588643
 H    8.077085    9.579794    14.376210
 H    8.174826    8.069827    14.665531
 O    8.888352    9.055717    9.030511
 H    8.745626    8.909106    7.997939
 H    7.991102    9.282688    9.321682
 O    9.012777    6.558121    14.714940
 H    9.988341    6.615681    14.463931
 H    8.700437    5.906858    14.025326
 O    4.001328    8.370102    8.972647
 H    3.472957    8.925465    8.386079
 H    4.752682    8.939062    9.334364
 O    2.746140    1.693589    9.280199
 H    3.587158    1.217564    9.124573
 H    2.557713    1.946835    8.296244
 O    5.711888    6.272260    22.014810
 H    4.782638    5.830281    21.935016
 H    6.265104    5.474387    21.687970
 O    6.399343    9.623655    16.652994
 H    7.111643    9.891010    17.264927
 H    6.937530    9.217459    15.932730
 O    4.531948    0.530211    18.502534
 H    4.759021    0.939474    19.398768
 H    5.353643    0.637767    18.007386
 O    0.992229    10.215925    10.320697
 H    0.197628    9.928532    9.802034
 H    1.512013    0.603517    9.723560
 O    2.209180    2.710356    20.790943
 H    2.355382    3.645332    21.063618
 H    2.218075    2.744401    19.859304
 O    6.618237    6.550964    9.367656
 H    5.835291    7.126672    9.425520
 H    7.454450    7.060830    9.258269
 O    9.853386    6.978936    10.413439
 H    9.487064    7.804516    9.943655
 H    0.523157    7.092422    10.743449
 O    0.358245    1.511399    12.275661
 H    0.588283    0.994888    11.426987
 H    1.231980    1.841733    12.597481
 O    5.706470    1.763725    14.856298
 H    5.903893    1.003169    15.532437
 H    5.077598    2.318474    15.336650
 O    0.495143    3.824863    15.072166
 H    1.036192    3.881913    14.297737
 H    0.658010    2.885082    15.302830
 O    5.110007    8.366626    19.902372
 H    4.773232    9.176564    19.466144
 H    4.361209    8.091092    20.506907
 O    6.601981    9.104690    22.182854
 H    5.856761    8.786931    21.596550
 H    7.041507    9.947957    21.933166
 O    2.722829    2.350679    6.679217
 H    1.894489    2.842653    6.483430
 H    3.486248    2.985788    6.663364
 O    9.318267    0.441161    14.297473
 H    9.786931    0.764032    13.453026
 H    9.889681    0.546058    15.074015
 O    5.422450    1.392393    8.316853
 H    6.019423    2.157345    8.602739
 H    5.772618    1.161333    7.408993
 O    4.737653    4.193639    6.755313
 H    5.653408    3.926898    6.524384
 H    4.563642    5.059501    6.362153
 O    7.171350    6.520497    19.149873
 H    6.845923    5.583374    19.341168
 H    6.416622    7.168487    19.406431
 O    7.488393    0.636847    18.966240
 H    8.311315    0.069829    18.761998
 H    7.729677    1.572538    18.692508
 O    6.258151    9.531129    9.776933
 H    6.033941    0.230242    9.319832
 H    6.093956    9.622428    10.766437
 O    1.023821    6.905529    6.171387
 H    0.327165    6.706981    5.445574
 H    0.763419    6.353234    6.992847
 O    3.498414    5.860135    18.639664
 H    3.690112    6.788158    18.401073
 H    2.692464    5.642366    18.109639
 O    5.283098    6.119515    12.464579
 H    6.273078    5.913197    12.386105
 H    4.900724    5.302523    12.015669
 O    6.604639    0.510479    5.943100
 H    5.768529    0.166241    5.687335
 H    7.253448    9.934461    6.030029
 O    2.308148    9.296899    15.425428
 H    1.804518    8.611284    14.893289
 H    2.880993    9.670787    14.717318
 O    8.889783    6.763417    17.203628
 H    8.087821    6.531539    17.669712
 H    8.800631    6.589304    16.214125
 O    0.797260    8.770879    20.795171
 H    0.690829    9.687247    21.092154
 H    10.113789    8.402819    21.050143
 O    3.738982    6.012369    14.996863
 H    4.398117    5.964112    14.271579
 H    4.274715    6.509557    15.648165
 O    2.449953    8.958079    6.627694
 H    1.718229    9.598197    6.857830
 H    1.959206    8.151515    6.236120
 O    4.507922    3.773641    11.416154
 H    5.245781    3.007462    11.569930
 H    4.022798    3.381555    10.685849
 O    8.545033    8.793781    6.543673
 H    8.237498    7.834677    6.390689
 H    9.187708    9.120537    5.836620
 O    0.105408    3.342704    6.565074
 H    0.153563    4.239749    7.048597
 H    0.195072    3.368775    5.543600
 O    9.556382    9.130658    18.369896
 H    10.124421    8.975255    19.167047
 H    9.492175    8.219504    17.992325
 O    9.703912    4.843879    21.415824
 H    9.725485    5.791124    21.519134
 H    10.014412    4.513136    22.308623
 O    4.121663    1.077190    21.262576
 H    4.646558    1.252428    22.114686
 H    3.499743    1.796646    21.193879
