Generated from /home/shaofl/projects/03_
   1.00000000000000     
    10.2239000000000004    0.0000000000000000    0.0000000000000000
     0.0000000000000006   10.2239000000000004    0.0000000000000000
     0.0000000000000016    0.0000000000000016   26.4220000000000006
   Cu   Ag   O    H 
    62     2    70   140
Direct
  0.9506399999999999  0.0070400000000035  0.9749699999999990
  0.1919100000000000  0.2453900000000004  0.9792500000000004
  0.9438900000000032  0.0125600000000006  0.1188900000000004
  0.2034599999999998  0.2404700000000020  0.1188799999999972
  0.1987000000000023  0.0021199999999979  0.9798800000000014
  0.9479200000000034  0.2610400000000013  0.9808700000000030
  0.1891600000000011  0.9903699999999986  0.1225299999999976
  0.9677000000000007  0.2506199999999978  0.1188999999999965
  0.3276600000000016  0.1094099999999969  0.9163899999999998
  0.0595199999999991  0.3863100000000017  0.9119299999999981
  0.3332199999999972  0.1306799999999981  0.0438499999999991
  0.0613600000000005  0.3740400000000008  0.0520100000000028
  0.0745399999999989  0.1362099999999984  0.9089299999999980
  0.0645200000000017  0.1170600000000022  0.0502600000000015
  0.3080100000000030  0.3753799999999998  0.0486000000000004
  0.4543699999999973  0.9733799999999988  0.9814099999999968
  0.7064999999999984  0.2434299999999965  0.9840200000000010
  0.4312600000000018  0.0014600000000016  0.1191400000000016
  0.6936800000000005  0.2635700000000014  0.1260800000000017
  0.6980999999999966  0.9985900000000001  0.9898200000000017
  0.4582499999999996  0.2445400000000006  0.9806999999999988
  0.6915800000000019  0.0032799999999966  0.1116099999999989
  0.4521400000000000  0.2464200000000005  0.1136399999999966
  0.8094699999999975  0.1261599999999987  0.9187299999999965
  0.5802499999999995  0.3693499999999972  0.9125799999999984
  0.8213500000000025  0.1269300000000015  0.0559000000000012
  0.5732599999999977  0.3777600000000021  0.0497299999999967
  0.5780600000000007  0.1149199999999979  0.9126400000000032
  0.8160600000000002  0.3713499999999996  0.9164400000000015
  0.5714299999999994  0.1194300000000013  0.0500699999999981
  0.8151099999999971  0.3674999999999997  0.0537300000000016
  0.9507499999999993  0.5073799999999977  0.9803899999999999
  0.2054400000000030  0.7561499999999981  0.9830899999999971
  0.9303999999999988  0.5003600000000006  0.1166899999999984
  0.1994800000000012  0.7523399999999967  0.1166699999999992
  0.1878000000000029  0.4944800000000029  0.9822399999999973
  0.9488500000000002  0.7559899999999971  0.9800800000000010
  0.1619200000000021  0.4909999999999997  0.1210599999999999
  0.9413399999999967  0.7403100000000009  0.1224100000000021
  0.3183700000000016  0.6344300000000018  0.9149000000000029
  0.0883200000000031  0.8773800000000023  0.9164600000000007
  0.3156999999999996  0.6138100000000009  0.0457200000000029
  0.0746899999999968  0.8845699999999965  0.0516900000000007
  0.0518799999999970  0.6312399999999982  0.9097599999999986
  0.3235999999999990  0.8697900000000018  0.9133199999999988
  0.0759200000000035  0.6251499999999979  0.0493400000000008
  0.3169899999999970  0.8735300000000024  0.0518000000000001
  0.4460199999999972  0.4906000000000006  0.9784999999999968
  0.6946099999999973  0.7538499999999999  0.9783899999999974
  0.6979499999999987  0.7544699999999978  0.1144800000000004
  0.6872400000000027  0.5007299999999972  0.9793900000000022
  0.4477899999999977  0.7383200000000016  0.9778799999999990
  0.7004799999999989  0.5184199999999990  0.1212200000000010
  0.4469100000000026  0.7512600000000020  0.1122999999999976
  0.8249399999999980  0.6403800000000004  0.9196699999999964
  0.5707499999999968  0.8711199999999977  0.9077300000000008
  0.8243000000000009  0.6231799999999978  0.0470800000000011
  0.5674399999999977  0.8762499999999989  0.0508299999999977
  0.5736100000000022  0.6193000000000026  0.9091999999999985
  0.8075899999999976  0.8812399999999982  0.9166900000000027
  0.5782600000000002  0.6332499999999968  0.0462300000000013
  0.8369300000000024  0.8720500000000015  0.0528300000000002
  0.3254900000000021  0.3587399999999974  0.9008600000000015
  0.4364199999999983  0.5027899999999974  0.1224100000000021
  0.5707299999999975  0.7873099999999980  0.2509500000000031
  0.8130900000000025  0.6686100000000010  0.2261600000000001
  0.0820599999999985  0.1750699999999981  0.6256199999999978
  0.4161500000000018  0.0239400000000032  0.2022199999999970
  0.0810400000000016  0.1129000000000033  0.2327399999999997
  0.7135999999999996  0.2943799999999968  0.4599400000000031
  0.0998599999999996  0.5305499999999981  0.6518599999999992
  0.7903799999999990  0.1232200000000034  0.7767800000000022
  0.6680899999999994  0.3915700000000015  0.7912099999999995
  0.1819599999999966  0.8304499999999990  0.5138400000000019
  0.7166599999999974  0.2288300000000021  0.6480000000000032
  0.0552399999999977  0.1533200000000008  0.8246800000000007
  0.5922699999999992  0.4789600000000007  0.6826200000000000
  0.7486299999999986  0.3956799999999987  0.3330800000000025
  0.6765100000000004  0.5878099999999975  0.5881699999999981
  0.9297400000000025  0.4295299999999997  0.4153700000000029
  0.3825700000000012  0.8250099999999989  0.6288699999999992
  0.4397700000000029  0.5239199999999968  0.3462400000000017
  0.7085000000000008  0.3115799999999993  0.2052499999999995
  0.4637699999999967  0.0982100000000017  0.5296200000000013
  0.2017200000000017  0.8612099999999998  0.4161399999999986
  0.3274899999999974  0.8669700000000020  0.8281500000000008
  0.9268599999999978  0.7105400000000017  0.7884299999999982
  0.3209299999999971  0.3161300000000011  0.4894600000000011
  0.8566500000000019  0.6633899999999997  0.4540000000000006
  0.3551900000000003  0.4081699999999984  0.5857999999999990
  0.2949600000000032  0.5497599999999991  0.8031500000000023
  0.8926400000000001  0.4047199999999975  0.7040799999999976
  0.5885999999999996  0.9350999999999985  0.4790300000000016
  0.2919499999999999  0.2824999999999989  0.6749300000000034
  0.9787299999999988  0.5893299999999968  0.2918700000000030
  0.8055999999999983  0.9915799999999990  0.5208799999999982
  0.8175000000000026  0.9724099999999964  0.3480899999999991
  0.9341900000000010  0.7628600000000034  0.5370800000000031
  0.3759599999999992  0.8070299999999975  0.3356599999999972
  0.2190900000000013  0.3046599999999984  0.3157199999999989
  0.5437099999999973  0.6516099999999980  0.8280499999999975
  0.6608900000000020  0.8611900000000006  0.6118499999999969
  0.5002199999999988  0.1149399999999972  0.6936099999999996
  0.0587700000000027  0.0870900000000034  0.3708900000000028
  0.2288100000000028  0.2831800000000015  0.7780599999999964
  0.6777099999999976  0.6809000000000012  0.3491799999999969
  0.9751400000000032  0.7742700000000013  0.3814700000000002
  0.0964000000000027  0.2578000000000031  0.4517600000000002
  0.6265799999999970  0.2890999999999977  0.5565100000000029
  0.9004499999999993  0.4804699999999968  0.5693199999999976
  0.5552700000000002  0.8496799999999993  0.7434599999999989
  0.6913399999999967  0.9206100000000035  0.8270499999999998
  0.3629600000000011  0.2928500000000014  0.2239999999999966
  0.9361200000000025  0.2293299999999974  0.5435999999999979
  0.5026500000000027  0.2341899999999981  0.3466099999999983
  0.5487099999999998  0.5015500000000017  0.2538499999999999
  0.7527299999999997  0.6721500000000020  0.7154900000000026
  0.7682000000000002  0.9955599999999976  0.6811700000000016
  0.5702199999999991  0.9954099999999997  0.3805300000000003
  0.1611100000000008  0.6776199999999974  0.2291700000000034
  0.3216400000000021  0.6280000000000001  0.6982500000000016
  0.5535500000000013  0.6569999999999965  0.5018499999999975
  0.6697500000000005  0.0880099999999970  0.2582000000000022
  0.2474399999999974  0.0082099999999983  0.5795999999999992
  0.9487000000000023  0.7528000000000006  0.6377799999999993
  0.1005800000000008  0.9221700000000013  0.7818400000000025
  0.3433100000000024  0.6468100000000021  0.5542700000000025
  0.2347200000000029  0.9013300000000015  0.2602499999999992
  0.4985399999999984  0.4407899999999998  0.4409300000000016
  0.8733000000000004  0.9573000000000036  0.2351299999999981
  0.9680000000000035  0.3786100000000019  0.2348100000000031
  0.0429400000000015  0.9534400000000005  0.6817500000000010
  0.9232999999999976  0.4532600000000002  0.8069399999999973
  0.4438000000000031  0.1306599999999989  0.8050100000000029
  0.5220199999999977  0.7915500000000009  0.2187699999999992
  0.5123000000000033  0.7890799999999984  0.2790099999999995
  0.7327099999999973  0.7158200000000008  0.2361900000000006
  0.8013899999999978  0.6377299999999977  0.1912099999999981
  0.0505799999999965  0.1039299999999983  0.6485399999999970
  0.1486000000000018  0.1226600000000033  0.6057300000000012
  0.3317100000000011  0.9796100000000010  0.2153899999999993
  0.3872900000000001  0.1161999999999992  0.2066599999999994
  0.0608900000000006  0.2066599999999994  0.2431699999999992
  0.0989000000000004  0.1282199999999989  0.1957099999999983
  0.7010199999999998  0.3045600000000022  0.4976600000000033
  0.7999700000000018  0.3291299999999993  0.4490199999999973
  0.0923700000000025  0.4876500000000021  0.6197700000000026
  0.0290999999999997  0.6023700000000005  0.6445900000000009
  0.7543500000000023  0.0719700000000003  0.7485199999999992
  0.7362400000000022  0.2078800000000030  0.7744199999999992
  0.7647600000000025  0.4113499999999988  0.7974699999999970
  0.6551400000000029  0.4126499999999993  0.7569799999999987
  0.2286199999999994  0.7504199999999983  0.5235600000000034
  0.2079999999999984  0.8473299999999995  0.4763999999999982
  0.6793499999999995  0.2652799999999971  0.6156199999999998
  0.7722899999999981  0.2923299999999998  0.6668700000000030
  0.9646299999999997  0.1739800000000002  0.8174199999999985
  0.1070100000000025  0.2215500000000006  0.8051800000000000
  0.5050499999999971  0.5037099999999981  0.6937500000000014
  0.5975200000000029  0.4971800000000002  0.6432300000000026
  0.7256900000000002  0.4888199999999969  0.3259299999999996
  0.8069100000000020  0.3710799999999992  0.3043499999999995
  0.7124600000000001  0.6660400000000024  0.6012500000000003
  0.7568500000000000  0.5340399999999974  0.5882999999999967
  0.8863899999999987  0.3939200000000014  0.3849900000000019
  0.0149800000000013  0.3799500000000009  0.4176799999999972
  0.3354399999999984  0.8961800000000011  0.6068300000000022
  0.4763900000000021  0.8353800000000007  0.6265100000000032
  0.4953799999999973  0.5066500000000005  0.3179700000000025
  0.4147099999999995  0.6163299999999978  0.3417699999999968
  0.6904899999999969  0.2257400000000018  0.2241799999999969
  0.8022399999999976  0.3215999999999966  0.2142199999999974
  0.4085999999999999  0.1407299999999978  0.5043999999999969
  0.5143300000000011  0.0273499999999984  0.5117100000000008
  0.2708500000000029  0.8375300000000010  0.3930799999999977
  0.1730299999999971  0.9432199999999966  0.3987499999999997
  0.3780799999999971  0.9415600000000026  0.8144399999999976
  0.2342099999999974  0.8886800000000008  0.8223500000000001
  0.8559600000000032  0.7004299999999972  0.7589200000000034
  0.8850199999999973  0.7195499999999981  0.8213500000000025
  0.3814599999999970  0.3594399999999993  0.4642899999999983
  0.3312799999999996  0.3567099999999996  0.5257300000000029
  0.8807899999999975  0.5767099999999985  0.4433900000000008
  0.9089200000000019  0.7146699999999981  0.4297800000000009
  0.3399399999999986  0.5030900000000003  0.5795699999999968
  0.3258900000000011  0.3723799999999997  0.6198300000000003
  0.2253100000000003  0.5940999999999974  0.8221800000000030
  0.2959499999999977  0.5990499999999983  0.7704799999999992
  0.9777500000000003  0.4358900000000006  0.6891699999999972
  0.9167699999999996  0.3887700000000009  0.7394600000000011
  0.6899799999999985  0.9599400000000031  0.4893399999999986
  0.5710199999999972  0.8444799999999972  0.4846599999999981
  0.2085300000000032  0.2526099999999971  0.6620300000000015
  0.3573499999999967  0.2089799999999968  0.6742300000000014
  0.9884600000000034  0.6463800000000006  0.3234300000000019
  0.9055499999999981  0.6297300000000021  0.2721400000000003
  0.8468500000000034  0.0756200000000007  0.5209400000000031
  0.8765199999999993  0.9292599999999993  0.5210500000000025
  0.8003799999999970  0.9855099999999979  0.3113900000000029
  0.7255299999999991  0.9962900000000019  0.3625600000000020
  0.0261599999999973  0.7689099999999982  0.5287900000000008
  0.8935800000000000  0.7146699999999981  0.5071099999999973
  0.3111699999999971  0.8480100000000022  0.3101399999999970
  0.4321500000000000  0.8758800000000022  0.3487900000000010
  0.2673100000000019  0.3004800000000003  0.2835299999999989
  0.2803299999999993  0.3449000000000026  0.3408599999999993
  0.4537199999999970  0.6229099999999974  0.8205999999999989
  0.5976799999999969  0.5790000000000006  0.8212800000000016
  0.7100099999999969  0.9029299999999978  0.6411900000000017
  0.6695300000000017  0.9224099999999993  0.5840800000000002
  0.5024900000000017  0.1373499999999979  0.7293799999999990
  0.5844400000000007  0.1524900000000002  0.6785300000000021
  0.9674400000000034  0.0651399999999995  0.3559100000000015
  0.0957599999999985  0.1555800000000005  0.3508500000000012
  0.2503400000000013  0.3781699999999972  0.7867999999999995
  0.2578499999999977  0.2750800000000027  0.7425700000000006
  0.7300200000000032  0.7612499999999969  0.3442500000000024
  0.6699100000000016  0.6728900000000024  0.3858499999999978
  0.9227399999999975  0.8524299999999982  0.3654200000000003
  0.0579899999999967  0.8037199999999984  0.3967900000000029
  0.0977299999999985  0.1948200000000000  0.4202799999999982
  0.1808499999999995  0.2773899999999969  0.4662999999999968
  0.5755800000000022  0.2126900000000020  0.5447100000000020
  0.5542799999999986  0.3564200000000000  0.5601100000000017
  0.9376000000000033  0.5248399999999975  0.5404199999999975
  0.9096299999999999  0.3824499999999986  0.5605800000000016
  0.4915599999999998  0.9125200000000007  0.7285400000000024
  0.4986800000000002  0.7963700000000031  0.7632600000000025
  0.6567000000000007  0.8869400000000027  0.7955699999999979
  0.7265500000000031  0.0126399999999975  0.8190499999999972
  0.3130700000000033  0.3444399999999987  0.1987999999999985
  0.4355300000000000  0.3503499999999988  0.2315400000000025
  0.9906599999999983  0.2370400000000004  0.5122700000000009
  0.9983100000000036  0.1891600000000011  0.5697400000000030
  0.5666999999999973  0.3018000000000001  0.3473899999999972
  0.5170400000000015  0.1878499999999974  0.3164000000000016
  0.6252799999999965  0.4719699999999989  0.2340099999999978
  0.5210500000000025  0.5775799999999975  0.2330200000000033
  0.6952900000000000  0.5992800000000003  0.7027500000000018
  0.6937899999999999  0.7485900000000001  0.7220700000000022
  0.8652999999999977  0.9901399999999967  0.6862399999999980
  0.7622300000000024  0.0804600000000022  0.6646399999999986
  0.5505700000000004  0.0968299999999971  0.3810700000000011
  0.5726900000000015  0.9684900000000027  0.4179000000000030
  0.1333699999999993  0.6523099999999999  0.1970400000000012
  0.1010100000000023  0.6370999999999967  0.2542299999999997
  0.3445600000000013  0.7060999999999993  0.6745000000000019
  0.2548000000000030  0.5808099999999996  0.6787899999999993
  0.6210099999999983  0.6262899999999973  0.5273499999999984
  0.5434699999999992  0.5836699999999979  0.4766899999999978
  0.5847199999999972  0.0566600000000008  0.2425899999999999
  0.7332499999999982  0.0296599999999998  0.2412700000000001
  0.2225200000000029  0.9424300000000017  0.5498600000000025
  0.3216699999999975  0.0558400000000034  0.5623000000000005
  0.8632800000000032  0.7259600000000006  0.6558199999999985
  0.9149799999999999  0.7759700000000009  0.6046199999999970
  0.0736500000000007  0.0032700000000006  0.7997200000000007
  0.0273800000000008  0.8606399999999965  0.7868500000000012
  0.4240500000000011  0.6413999999999973  0.5311299999999974
  0.3541099999999986  0.7061700000000002  0.5859499999999969
  0.1591099999999983  0.9621700000000004  0.2653000000000034
  0.1984800000000035  0.8167899999999975  0.2421300000000031
  0.5871399999999980  0.3842599999999976  0.4429799999999986
  0.4878100000000032  0.4682000000000031  0.4041599999999974
  0.8937900000000027  0.8644600000000011  0.2275399999999976
  0.9515699999999967  0.0090000000000003  0.2282599999999988
  0.9968000000000004  0.4408000000000030  0.2624799999999965
  0.0222499999999997  0.3854899999999972  0.2043699999999973
  0.0731800000000007  0.9440200000000019  0.7169000000000025
  0.0178999999999974  0.8681300000000007  0.6693799999999968
  0.9373199999999997  0.5477500000000006  0.7973300000000023
  0.9563300000000012  0.4475399999999965  0.8420100000000019
  0.4907600000000016  0.1495600000000010  0.8391299999999973
  0.3849799999999988  0.2042599999999979  0.8002699999999976
 
  0.00000000E+00  0.00000000E+00  0.00000000E+00
  0.00000000E+00  0.00000000E+00  0.00000000E+00
  0.00000000E+00  0.00000000E+00  0.00000000E+00
  0.00000000E+00  0.00000000E+00  0.00000000E+00
  0.00000000E+00  0.00000000E+00  0.00000000E+00
  0.00000000E+00  0.00000000E+00  0.00000000E+00
  0.00000000E+00  0.00000000E+00  0.00000000E+00
  0.00000000E+00  0.00000000E+00  0.00000000E+00
  0.00000000E+00  0.00000000E+00  0.00000000E+00
  0.00000000E+00  0.00000000E+00  0.00000000E+00
  0.00000000E+00  0.00000000E+00  0.00000000E+00
  0.00000000E+00  0.00000000E+00  0.00000000E+00
  0.00000000E+00  0.00000000E+00  0.00000000E+00
  0.00000000E+00  0.00000000E+00  0.00000000E+00
  0.00000000E+00  0.00000000E+00  0.00000000E+00
  0.00000000E+00  0.00000000E+00  0.00000000E+00
  0.00000000E+00  0.00000000E+00  0.00000000E+00
  0.00000000E+00  0.00000000E+00  0.00000000E+00
  0.00000000E+00  0.00000000E+00  0.00000000E+00
  0.00000000E+00  0.00000000E+00  0.00000000E+00
  0.00000000E+00  0.00000000E+00  0.00000000E+00
  0.00000000E+00  0.00000000E+00  0.00000000E+00
  0.00000000E+00  0.00000000E+00  0.00000000E+00
  0.00000000E+00  0.00000000E+00  0.00000000E+00
  0.00000000E+00  0.00000000E+00  0.00000000E+00
  0.00000000E+00  0.00000000E+00  0.00000000E+00
  0.00000000E+00  0.00000000E+00  0.00000000E+00
  0.00000000E+00  0.00000000E+00  0.00000000E+00
  0.00000000E+00  0.00000000E+00  0.00000000E+00
  0.00000000E+00  0.00000000E+00  0.00000000E+00
  0.00000000E+00  0.00000000E+00  0.00000000E+00
  0.00000000E+00  0.00000000E+00  0.00000000E+00
  0.00000000E+00  0.00000000E+00  0.00000000E+00
  0.00000000E+00  0.00000000E+00  0.00000000E+00
  0.00000000E+00  0.00000000E+00  0.00000000E+00
  0.00000000E+00  0.00000000E+00  0.00000000E+00
  0.00000000E+00  0.00000000E+00  0.00000000E+00
  0.00000000E+00  0.00000000E+00  0.00000000E+00
  0.00000000E+00  0.00000000E+00  0.00000000E+00
  0.00000000E+00  0.00000000E+00  0.00000000E+00
  0.00000000E+00  0.00000000E+00  0.00000000E+00
  0.00000000E+00  0.00000000E+00  0.00000000E+00
  0.00000000E+00  0.00000000E+00  0.00000000E+00
  0.00000000E+00  0.00000000E+00  0.00000000E+00
  0.00000000E+00  0.00000000E+00  0.00000000E+00
  0.00000000E+00  0.00000000E+00  0.00000000E+00
  0.00000000E+00  0.00000000E+00  0.00000000E+00
  0.00000000E+00  0.00000000E+00  0.00000000E+00
  0.00000000E+00  0.00000000E+00  0.00000000E+00
  0.00000000E+00  0.00000000E+00  0.00000000E+00
  0.00000000E+00  0.00000000E+00  0.00000000E+00
  0.00000000E+00  0.00000000E+00  0.00000000E+00
  0.00000000E+00  0.00000000E+00  0.00000000E+00
  0.00000000E+00  0.00000000E+00  0.00000000E+00
  0.00000000E+00  0.00000000E+00  0.00000000E+00
  0.00000000E+00  0.00000000E+00  0.00000000E+00
  0.00000000E+00  0.00000000E+00  0.00000000E+00
  0.00000000E+00  0.00000000E+00  0.00000000E+00
  0.00000000E+00  0.00000000E+00  0.00000000E+00
  0.00000000E+00  0.00000000E+00  0.00000000E+00
  0.00000000E+00  0.00000000E+00  0.00000000E+00
  0.00000000E+00  0.00000000E+00  0.00000000E+00
  0.00000000E+00  0.00000000E+00  0.00000000E+00
  0.00000000E+00  0.00000000E+00  0.00000000E+00
  0.00000000E+00  0.00000000E+00  0.00000000E+00
  0.00000000E+00  0.00000000E+00  0.00000000E+00
  0.00000000E+00  0.00000000E+00  0.00000000E+00
  0.00000000E+00  0.00000000E+00  0.00000000E+00
  0.00000000E+00  0.00000000E+00  0.00000000E+00
  0.00000000E+00  0.00000000E+00  0.00000000E+00
  0.00000000E+00  0.00000000E+00  0.00000000E+00
  0.00000000E+00  0.00000000E+00  0.00000000E+00
  0.00000000E+00  0.00000000E+00  0.00000000E+00
  0.00000000E+00  0.00000000E+00  0.00000000E+00
  0.00000000E+00  0.00000000E+00  0.00000000E+00
  0.00000000E+00  0.00000000E+00  0.00000000E+00
  0.00000000E+00  0.00000000E+00  0.00000000E+00
  0.00000000E+00  0.00000000E+00  0.00000000E+00
  0.00000000E+00  0.00000000E+00  0.00000000E+00
  0.00000000E+00  0.00000000E+00  0.00000000E+00
  0.00000000E+00  0.00000000E+00  0.00000000E+00
  0.00000000E+00  0.00000000E+00  0.00000000E+00
  0.00000000E+00  0.00000000E+00  0.00000000E+00
  0.00000000E+00  0.00000000E+00  0.00000000E+00
  0.00000000E+00  0.00000000E+00  0.00000000E+00
  0.00000000E+00  0.00000000E+00  0.00000000E+00
  0.00000000E+00  0.00000000E+00  0.00000000E+00
  0.00000000E+00  0.00000000E+00  0.00000000E+00
  0.00000000E+00  0.00000000E+00  0.00000000E+00
  0.00000000E+00  0.00000000E+00  0.00000000E+00
  0.00000000E+00  0.00000000E+00  0.00000000E+00
  0.00000000E+00  0.00000000E+00  0.00000000E+00
  0.00000000E+00  0.00000000E+00  0.00000000E+00
  0.00000000E+00  0.00000000E+00  0.00000000E+00
  0.00000000E+00  0.00000000E+00  0.00000000E+00
  0.00000000E+00  0.00000000E+00  0.00000000E+00
  0.00000000E+00  0.00000000E+00  0.00000000E+00
  0.00000000E+00  0.00000000E+00  0.00000000E+00
  0.00000000E+00  0.00000000E+00  0.00000000E+00
  0.00000000E+00  0.00000000E+00  0.00000000E+00
  0.00000000E+00  0.00000000E+00  0.00000000E+00
  0.00000000E+00  0.00000000E+00  0.00000000E+00
  0.00000000E+00  0.00000000E+00  0.00000000E+00
  0.00000000E+00  0.00000000E+00  0.00000000E+00
  0.00000000E+00  0.00000000E+00  0.00000000E+00
  0.00000000E+00  0.00000000E+00  0.00000000E+00
  0.00000000E+00  0.00000000E+00  0.00000000E+00
  0.00000000E+00  0.00000000E+00  0.00000000E+00
  0.00000000E+00  0.00000000E+00  0.00000000E+00
  0.00000000E+00  0.00000000E+00  0.00000000E+00
  0.00000000E+00  0.00000000E+00  0.00000000E+00
  0.00000000E+00  0.00000000E+00  0.00000000E+00
  0.00000000E+00  0.00000000E+00  0.00000000E+00
  0.00000000E+00  0.00000000E+00  0.00000000E+00
  0.00000000E+00  0.00000000E+00  0.00000000E+00
  0.00000000E+00  0.00000000E+00  0.00000000E+00
  0.00000000E+00  0.00000000E+00  0.00000000E+00
  0.00000000E+00  0.00000000E+00  0.00000000E+00
  0.00000000E+00  0.00000000E+00  0.00000000E+00
  0.00000000E+00  0.00000000E+00  0.00000000E+00
  0.00000000E+00  0.00000000E+00  0.00000000E+00
  0.00000000E+00  0.00000000E+00  0.00000000E+00
  0.00000000E+00  0.00000000E+00  0.00000000E+00
  0.00000000E+00  0.00000000E+00  0.00000000E+00
  0.00000000E+00  0.00000000E+00  0.00000000E+00
  0.00000000E+00  0.00000000E+00  0.00000000E+00
  0.00000000E+00  0.00000000E+00  0.00000000E+00
  0.00000000E+00  0.00000000E+00  0.00000000E+00
  0.00000000E+00  0.00000000E+00  0.00000000E+00
  0.00000000E+00  0.00000000E+00  0.00000000E+00
  0.00000000E+00  0.00000000E+00  0.00000000E+00
  0.00000000E+00  0.00000000E+00  0.00000000E+00
  0.00000000E+00  0.00000000E+00  0.00000000E+00
  0.00000000E+00  0.00000000E+00  0.00000000E+00
  0.00000000E+00  0.00000000E+00  0.00000000E+00
  0.00000000E+00  0.00000000E+00  0.00000000E+00
  0.00000000E+00  0.00000000E+00  0.00000000E+00
  0.00000000E+00  0.00000000E+00  0.00000000E+00
  0.00000000E+00  0.00000000E+00  0.00000000E+00
  0.00000000E+00  0.00000000E+00  0.00000000E+00
  0.00000000E+00  0.00000000E+00  0.00000000E+00
  0.00000000E+00  0.00000000E+00  0.00000000E+00
  0.00000000E+00  0.00000000E+00  0.00000000E+00
  0.00000000E+00  0.00000000E+00  0.00000000E+00
  0.00000000E+00  0.00000000E+00  0.00000000E+00
  0.00000000E+00  0.00000000E+00  0.00000000E+00
  0.00000000E+00  0.00000000E+00  0.00000000E+00
  0.00000000E+00  0.00000000E+00  0.00000000E+00
  0.00000000E+00  0.00000000E+00  0.00000000E+00
  0.00000000E+00  0.00000000E+00  0.00000000E+00
  0.00000000E+00  0.00000000E+00  0.00000000E+00
  0.00000000E+00  0.00000000E+00  0.00000000E+00
  0.00000000E+00  0.00000000E+00  0.00000000E+00
  0.00000000E+00  0.00000000E+00  0.00000000E+00
  0.00000000E+00  0.00000000E+00  0.00000000E+00
  0.00000000E+00  0.00000000E+00  0.00000000E+00
  0.00000000E+00  0.00000000E+00  0.00000000E+00
  0.00000000E+00  0.00000000E+00  0.00000000E+00
  0.00000000E+00  0.00000000E+00  0.00000000E+00
  0.00000000E+00  0.00000000E+00  0.00000000E+00
  0.00000000E+00  0.00000000E+00  0.00000000E+00
  0.00000000E+00  0.00000000E+00  0.00000000E+00
  0.00000000E+00  0.00000000E+00  0.00000000E+00
  0.00000000E+00  0.00000000E+00  0.00000000E+00
  0.00000000E+00  0.00000000E+00  0.00000000E+00
  0.00000000E+00  0.00000000E+00  0.00000000E+00
  0.00000000E+00  0.00000000E+00  0.00000000E+00
  0.00000000E+00  0.00000000E+00  0.00000000E+00
  0.00000000E+00  0.00000000E+00  0.00000000E+00
  0.00000000E+00  0.00000000E+00  0.00000000E+00
  0.00000000E+00  0.00000000E+00  0.00000000E+00
  0.00000000E+00  0.00000000E+00  0.00000000E+00
  0.00000000E+00  0.00000000E+00  0.00000000E+00
  0.00000000E+00  0.00000000E+00  0.00000000E+00
  0.00000000E+00  0.00000000E+00  0.00000000E+00
  0.00000000E+00  0.00000000E+00  0.00000000E+00
  0.00000000E+00  0.00000000E+00  0.00000000E+00
  0.00000000E+00  0.00000000E+00  0.00000000E+00
  0.00000000E+00  0.00000000E+00  0.00000000E+00
  0.00000000E+00  0.00000000E+00  0.00000000E+00
  0.00000000E+00  0.00000000E+00  0.00000000E+00
  0.00000000E+00  0.00000000E+00  0.00000000E+00
  0.00000000E+00  0.00000000E+00  0.00000000E+00
  0.00000000E+00  0.00000000E+00  0.00000000E+00
  0.00000000E+00  0.00000000E+00  0.00000000E+00
  0.00000000E+00  0.00000000E+00  0.00000000E+00
  0.00000000E+00  0.00000000E+00  0.00000000E+00
  0.00000000E+00  0.00000000E+00  0.00000000E+00
  0.00000000E+00  0.00000000E+00  0.00000000E+00
  0.00000000E+00  0.00000000E+00  0.00000000E+00
  0.00000000E+00  0.00000000E+00  0.00000000E+00
  0.00000000E+00  0.00000000E+00  0.00000000E+00
  0.00000000E+00  0.00000000E+00  0.00000000E+00
  0.00000000E+00  0.00000000E+00  0.00000000E+00
  0.00000000E+00  0.00000000E+00  0.00000000E+00
  0.00000000E+00  0.00000000E+00  0.00000000E+00
  0.00000000E+00  0.00000000E+00  0.00000000E+00
  0.00000000E+00  0.00000000E+00  0.00000000E+00
  0.00000000E+00  0.00000000E+00  0.00000000E+00
  0.00000000E+00  0.00000000E+00  0.00000000E+00
  0.00000000E+00  0.00000000E+00  0.00000000E+00
  0.00000000E+00  0.00000000E+00  0.00000000E+00
  0.00000000E+00  0.00000000E+00  0.00000000E+00
  0.00000000E+00  0.00000000E+00  0.00000000E+00
  0.00000000E+00  0.00000000E+00  0.00000000E+00
  0.00000000E+00  0.00000000E+00  0.00000000E+00
  0.00000000E+00  0.00000000E+00  0.00000000E+00
  0.00000000E+00  0.00000000E+00  0.00000000E+00
  0.00000000E+00  0.00000000E+00  0.00000000E+00
  0.00000000E+00  0.00000000E+00  0.00000000E+00
  0.00000000E+00  0.00000000E+00  0.00000000E+00
  0.00000000E+00  0.00000000E+00  0.00000000E+00
  0.00000000E+00  0.00000000E+00  0.00000000E+00
  0.00000000E+00  0.00000000E+00  0.00000000E+00
  0.00000000E+00  0.00000000E+00  0.00000000E+00
  0.00000000E+00  0.00000000E+00  0.00000000E+00
  0.00000000E+00  0.00000000E+00  0.00000000E+00
  0.00000000E+00  0.00000000E+00  0.00000000E+00
  0.00000000E+00  0.00000000E+00  0.00000000E+00
  0.00000000E+00  0.00000000E+00  0.00000000E+00
  0.00000000E+00  0.00000000E+00  0.00000000E+00
  0.00000000E+00  0.00000000E+00  0.00000000E+00
  0.00000000E+00  0.00000000E+00  0.00000000E+00
  0.00000000E+00  0.00000000E+00  0.00000000E+00
  0.00000000E+00  0.00000000E+00  0.00000000E+00
  0.00000000E+00  0.00000000E+00  0.00000000E+00
  0.00000000E+00  0.00000000E+00  0.00000000E+00
  0.00000000E+00  0.00000000E+00  0.00000000E+00
  0.00000000E+00  0.00000000E+00  0.00000000E+00
  0.00000000E+00  0.00000000E+00  0.00000000E+00
  0.00000000E+00  0.00000000E+00  0.00000000E+00
  0.00000000E+00  0.00000000E+00  0.00000000E+00
  0.00000000E+00  0.00000000E+00  0.00000000E+00
  0.00000000E+00  0.00000000E+00  0.00000000E+00
  0.00000000E+00  0.00000000E+00  0.00000000E+00
  0.00000000E+00  0.00000000E+00  0.00000000E+00
  0.00000000E+00  0.00000000E+00  0.00000000E+00
  0.00000000E+00  0.00000000E+00  0.00000000E+00
  0.00000000E+00  0.00000000E+00  0.00000000E+00
  0.00000000E+00  0.00000000E+00  0.00000000E+00
  0.00000000E+00  0.00000000E+00  0.00000000E+00
  0.00000000E+00  0.00000000E+00  0.00000000E+00
  0.00000000E+00  0.00000000E+00  0.00000000E+00
  0.00000000E+00  0.00000000E+00  0.00000000E+00
  0.00000000E+00  0.00000000E+00  0.00000000E+00
  0.00000000E+00  0.00000000E+00  0.00000000E+00
  0.00000000E+00  0.00000000E+00  0.00000000E+00
  0.00000000E+00  0.00000000E+00  0.00000000E+00
  0.00000000E+00  0.00000000E+00  0.00000000E+00
  0.00000000E+00  0.00000000E+00  0.00000000E+00
  0.00000000E+00  0.00000000E+00  0.00000000E+00
  0.00000000E+00  0.00000000E+00  0.00000000E+00
  0.00000000E+00  0.00000000E+00  0.00000000E+00
  0.00000000E+00  0.00000000E+00  0.00000000E+00
  0.00000000E+00  0.00000000E+00  0.00000000E+00
  0.00000000E+00  0.00000000E+00  0.00000000E+00
  0.00000000E+00  0.00000000E+00  0.00000000E+00
  0.00000000E+00  0.00000000E+00  0.00000000E+00
  0.00000000E+00  0.00000000E+00  0.00000000E+00
  0.00000000E+00  0.00000000E+00  0.00000000E+00
  0.00000000E+00  0.00000000E+00  0.00000000E+00
  0.00000000E+00  0.00000000E+00  0.00000000E+00
  0.00000000E+00  0.00000000E+00  0.00000000E+00
  0.00000000E+00  0.00000000E+00  0.00000000E+00