Generated from /home/shaofl/projects/03_CuAg_SAA/explicit/double-side/bader/pzc/calc_t0_i0/traj_0.cif by cif2poscar.py
   1.00000000000000
    10.2239000000000004  0.0000000000000000  0.0000000000000000
     0.0000000000000006 10.2239000000000004  0.0000000000000000
     0.0000000000000016  0.0000000000000016 26.4220000000000006
 Cu Ag O H
    62    2    70    140
Direct
   0.9506400000000000  0.0070400000000000  0.9749700000000000
   0.1919100000000000  0.2453900000000000  0.9792500000000000
   0.9438900000000000  0.0125600000000000  0.1188900000000000
   0.2034600000000000  0.2404700000000000  0.1188800000000000
   0.1987000000000000  0.0021200000000000  0.9798800000000000
   0.9479200000000000  0.2610400000000000  0.9808700000000000
   0.1891600000000000  0.9903700000000000  0.1225300000000000
   0.9677000000000000  0.2506200000000000  0.1189000000000000
   0.3276600000000000  0.1094100000000000  0.9163900000000000
   0.0595200000000000  0.3863100000000000  0.9119300000000000
   0.3332200000000000  0.1306800000000000  0.0438500000000000
   0.0613600000000000  0.3740400000000000  0.0520100000000000
   0.0745400000000000  0.1362100000000000  0.9089300000000000
   0.0645200000000000  0.1170600000000000  0.0502600000000000
   0.3080100000000000  0.3753800000000000  0.0486000000000000
   0.4543700000000000  0.9733800000000000  0.9814100000000000
   0.7065000000000000  0.2434300000000000  0.9840200000000000
   0.4312600000000000  0.0014600000000000  0.1191400000000000
   0.6936800000000000  0.2635700000000000  0.1260800000000000
   0.6981000000000001  0.9985900000000000  0.9898200000000000
   0.4582500000000000  0.2445400000000000  0.9807000000000000
   0.6915800000000000  0.0032800000000000  0.1116100000000000
   0.4521400000000000  0.2464200000000000  0.1136400000000000
   0.8094700000000000  0.1261600000000000  0.9187300000000000
   0.5802500000000000  0.3693500000000000  0.9125799999999999
   0.8213500000000000  0.1269300000000000  0.0559000000000000
   0.5732600000000000  0.3777600000000000  0.0497300000000000
   0.5780600000000000  0.1149200000000000  0.9126400000000000
   0.8160600000000000  0.3713500000000000  0.9164400000000000
   0.5714300000000000  0.1194300000000000  0.0500700000000000
   0.8151100000000000  0.3675000000000000  0.0537300000000000
   0.9507500000000000  0.5073800000000001  0.9803900000000000
   0.2054400000000000  0.7561500000000000  0.9830900000000000
   0.9304000000000000  0.5003600000000000  0.1166900000000000
   0.1994800000000000  0.7523400000000000  0.1166700000000000
   0.1878000000000000  0.4944800000000000  0.9822400000000000
   0.9488500000000000  0.7559900000000001  0.9800800000000000
   0.1619200000000000  0.4910000000000000  0.1210600000000000
   0.9413400000000000  0.7403100000000000  0.1224100000000000
   0.3183700000000000  0.6344300000000000  0.9149000000000000
   0.0883200000000000  0.8773800000000000  0.9164600000000001
   0.3157000000000000  0.6138100000000000  0.0457200000000000
   0.0746900000000000  0.8845700000000000  0.0516900000000000
   0.0518800000000000  0.6312400000000000  0.9097600000000000
   0.3236000000000000  0.8697900000000000  0.9133200000000000
   0.0759200000000000  0.6251500000000000  0.0493400000000000
   0.3169900000000000  0.8735300000000000  0.0518000000000000
   0.4460200000000000  0.4906000000000000  0.9785000000000000
   0.6946099999999999  0.7538500000000000  0.9783900000000000
   0.6979500000000000  0.7544700000000000  0.1144800000000000
   0.6872400000000000  0.5007300000000000  0.9793900000000000
   0.4477900000000000  0.7383200000000000  0.9778800000000000
   0.7004800000000000  0.5184200000000000  0.1212200000000000
   0.4469100000000000  0.7512600000000000  0.1123000000000000
   0.8249400000000000  0.6403799999999999  0.9196700000000000
   0.5707500000000000  0.8711200000000000  0.9077300000000000
   0.8243000000000000  0.6231800000000000  0.0470800000000000
   0.5674400000000001  0.8762500000000000  0.0508300000000000
   0.5736100000000000  0.6193000000000000  0.9092000000000000
   0.8075900000000000  0.8812400000000000  0.9166900000000000
   0.5782600000000000  0.6332500000000000  0.0462300000000000
   0.8369300000000000  0.8720500000000000  0.0528300000000000
   0.3254900000000000  0.3587400000000000  0.9008600000000000
   0.4364200000000000  0.5027900000000000  0.1224100000000000
   0.5707300000000000  0.7873100000000000  0.2509500000000000
   0.8130900000000000  0.6686100000000000  0.2261600000000000
   0.0820600000000000  0.1750700000000000  0.6256200000000000
   0.4161500000000000  0.0239400000000000  0.2022200000000000
   0.0810400000000000  0.1129000000000000  0.2327400000000000
   0.7136000000000000  0.2943800000000000  0.4599400000000000
   0.0998600000000000  0.5305500000000000  0.6518600000000000
   0.7903800000000000  0.1232200000000000  0.7767800000000000
   0.6680900000000000  0.3915700000000000  0.7912100000000000
   0.1819600000000000  0.8304500000000000  0.5138400000000000
   0.7166600000000000  0.2288300000000000  0.6480000000000000
   0.0552400000000000  0.1533200000000000  0.8246800000000000
   0.5922700000000000  0.4789600000000000  0.6826200000000000
   0.7486300000000000  0.3956800000000000  0.3330800000000000
   0.6765099999999999  0.5878100000000001  0.5881700000000000
   0.9297400000000000  0.4295300000000000  0.4153700000000000
   0.3825700000000000  0.8250100000000000  0.6288700000000000
   0.4397700000000000  0.5239200000000001  0.3462400000000000
   0.7085000000000000  0.3115800000000000  0.2052500000000000
   0.4637700000000000  0.0982100000000000  0.5296200000000000
   0.2017200000000000  0.8612100000000000  0.4161400000000000
   0.3274900000000000  0.8669700000000000  0.8281500000000001
   0.9268600000000000  0.7105399999999999  0.7884300000000000
   0.3209300000000000  0.3161300000000000  0.4894600000000000
   0.8566500000000000  0.6633900000000000  0.4540000000000000
   0.3551900000000000  0.4081700000000000  0.5858000000000000
   0.2949600000000000  0.5497600000000000  0.8031500000000000
   0.8926400000000000  0.4047200000000000  0.7040800000000000
   0.5886000000000000  0.9351000000000000  0.4790300000000000
   0.2919500000000000  0.2825000000000000  0.6749300000000000
   0.9787300000000000  0.5893300000000000  0.2918700000000000
   0.8056000000000000  0.9915800000000000  0.5208800000000000
   0.8175000000000000  0.9724100000000000  0.3480900000000000
   0.9341900000000000  0.7628600000000000  0.5370800000000000
   0.3759600000000000  0.8070300000000000  0.3356600000000000
   0.2190900000000000  0.3046600000000000  0.3157200000000000
   0.5437100000000000  0.6516100000000000  0.8280500000000000
   0.6608900000000000  0.8611900000000000  0.6118500000000000
   0.5002200000000000  0.1149400000000000  0.6936099999999999
   0.0587700000000000  0.0870900000000000  0.3708900000000000
   0.2288100000000000  0.2831800000000000  0.7780600000000000
   0.6777100000000000  0.6808999999999999  0.3491800000000000
   0.9751400000000000  0.7742700000000000  0.3814700000000000
   0.0964000000000000  0.2578000000000000  0.4517600000000000
   0.6265800000000000  0.2891000000000000  0.5565099999999999
   0.9004500000000000  0.4804700000000000  0.5693200000000000
   0.5552700000000000  0.8496800000000000  0.7434600000000000
   0.6913400000000000  0.9206100000000000  0.8270500000000000
   0.3629600000000000  0.2928500000000000  0.2240000000000000
   0.9361200000000000  0.2293300000000000  0.5436000000000000
   0.5026500000000000  0.2341900000000000  0.3466100000000000
   0.5487100000000000  0.5015500000000001  0.2538500000000000
   0.7527300000000000  0.6721500000000000  0.7154900000000000
   0.7682000000000000  0.9955600000000000  0.6811700000000001
   0.5702199999999999  0.9954100000000000  0.3805300000000000
   0.1611100000000000  0.6776200000000000  0.2291700000000000
   0.3216400000000000  0.6280000000000000  0.6982500000000000
   0.5535500000000000  0.6570000000000000  0.5018500000000000
   0.6697500000000000  0.0880100000000000  0.2582000000000000
   0.2474400000000000  0.0082100000000000  0.5796000000000000
   0.9487000000000000  0.7528000000000000  0.6377800000000000
   0.1005800000000000  0.9221700000000000  0.7818400000000000
   0.3433100000000000  0.6468100000000000  0.5542700000000000
   0.2347200000000000  0.9013300000000000  0.2602500000000000
   0.4985400000000000  0.4407900000000000  0.4409300000000000
   0.8733000000000000  0.9573000000000000  0.2351300000000000
   0.9680000000000000  0.3786100000000000  0.2348100000000000
   0.0429400000000000  0.9534400000000000  0.6817500000000000
   0.9233000000000000  0.4532600000000000  0.8069400000000000
   0.4438000000000000  0.1306600000000000  0.8050100000000000
   0.5220200000000000  0.7915500000000000  0.2187700000000000
   0.5123000000000000  0.7890800000000000  0.2790100000000000
   0.7327100000000000  0.7158200000000000  0.2361900000000000
   0.8013900000000000  0.6377300000000000  0.1912100000000000
   0.0505800000000000  0.1039300000000000  0.6485400000000000
   0.1486000000000000  0.1226600000000000  0.6057300000000000
   0.3317100000000000  0.9796100000000000  0.2153900000000000
   0.3872900000000000  0.1162000000000000  0.2066600000000000
   0.0608900000000000  0.2066600000000000  0.2431700000000000
   0.0989000000000000  0.1282200000000000  0.1957100000000000
   0.7010200000000000  0.3045600000000000  0.4976600000000000
   0.7999700000000000  0.3291300000000000  0.4490200000000000
   0.0923700000000000  0.4876500000000000  0.6197700000000000
   0.0291000000000000  0.6023700000000000  0.6445900000000000
   0.7543500000000000  0.0719700000000000  0.7485200000000000
   0.7362400000000000  0.2078800000000000  0.7744200000000000
   0.7647600000000000  0.4113500000000000  0.7974700000000000
   0.6551399999999999  0.4126500000000000  0.7569800000000000
   0.2286200000000000  0.7504200000000000  0.5235600000000000
   0.2080000000000000  0.8473300000000000  0.4764000000000000
   0.6793500000000000  0.2652800000000000  0.6156199999999999
   0.7722900000000000  0.2923300000000000  0.6668700000000000
   0.9646300000000000  0.1739800000000000  0.8174200000000000
   0.1070100000000000  0.2215500000000000  0.8051800000000000
   0.5050500000000000  0.5037100000000000  0.6937500000000000
   0.5975200000000001  0.4971800000000000  0.6432300000000000
   0.7256899999999999  0.4888200000000000  0.3259300000000000
   0.8069100000000000  0.3710800000000000  0.3043500000000000
   0.7124600000000000  0.6660400000000000  0.6012500000000000
   0.7568500000000000  0.5340400000000000  0.5883000000000000
   0.8863900000000000  0.3939200000000000  0.3849900000000000
   0.0149800000000000  0.3799500000000000  0.4176800000000000
   0.3354400000000000  0.8961800000000000  0.6068300000000000
   0.4763900000000000  0.8353800000000000  0.6265100000000000
   0.4953800000000000  0.5066500000000000  0.3179700000000000
   0.4147100000000000  0.6163300000000000  0.3417700000000000
   0.6904900000000000  0.2257400000000000  0.2241800000000000
   0.8022400000000000  0.3216000000000000  0.2142200000000000
   0.4086000000000000  0.1407300000000000  0.5044000000000000
   0.5143300000000000  0.0273500000000000  0.5117100000000000
   0.2708500000000000  0.8375300000000000  0.3930800000000000
   0.1730300000000000  0.9432199999999999  0.3987500000000000
   0.3780800000000000  0.9415600000000000  0.8144400000000001
   0.2342100000000000  0.8886800000000000  0.8223500000000000
   0.8559600000000001  0.7004300000000000  0.7589200000000000
   0.8850200000000000  0.7195500000000000  0.8213500000000000
   0.3814600000000000  0.3594400000000000  0.4642900000000000
   0.3312800000000000  0.3567100000000000  0.5257300000000000
   0.8807900000000000  0.5767099999999999  0.4433900000000000
   0.9089200000000000  0.7146700000000000  0.4297800000000000
   0.3399400000000000  0.5030900000000000  0.5795700000000000
   0.3258900000000000  0.3723800000000000  0.6198300000000000
   0.2253100000000000  0.5941000000000000  0.8221800000000000
   0.2959500000000000  0.5990500000000000  0.7704800000000001
   0.9777500000000000  0.4358900000000000  0.6891699999999999
   0.9167700000000000  0.3887700000000000  0.7394600000000000
   0.6899800000000000  0.9599400000000000  0.4893400000000000
   0.5710200000000000  0.8444800000000000  0.4846600000000000
   0.2085300000000000  0.2526100000000000  0.6620300000000000
   0.3573500000000000  0.2089800000000000  0.6742300000000000
   0.9884600000000000  0.6463800000000000  0.3234300000000000
   0.9055500000000000  0.6297300000000000  0.2721400000000000
   0.8468500000000000  0.0756200000000000  0.5209400000000000
   0.8765200000000000  0.9292600000000000  0.5210500000000000
   0.8003800000000000  0.9855100000000000  0.3113900000000000
   0.7255300000000000  0.9962900000000000  0.3625600000000000
   0.0261600000000000  0.7689100000000000  0.5287900000000000
   0.8935800000000000  0.7146700000000000  0.5071099999999999
   0.3111700000000000  0.8480100000000000  0.3101400000000000
   0.4321500000000000  0.8758800000000000  0.3487900000000000
   0.2673100000000000  0.3004800000000000  0.2835300000000000
   0.2803300000000000  0.3449000000000000  0.3408600000000000
   0.4537200000000000  0.6229100000000000  0.8206000000000000
   0.5976800000000000  0.5790000000000000  0.8212800000000000
   0.7100100000000000  0.9029300000000000  0.6411900000000000
   0.6695300000000000  0.9224100000000000  0.5840800000000000
   0.5024900000000000  0.1373500000000000  0.7293800000000000
   0.5844400000000000  0.1524900000000000  0.6785300000000000
   0.9674400000000000  0.0651400000000000  0.3559100000000000
   0.0957600000000000  0.1555800000000000  0.3508500000000000
   0.2503400000000000  0.3781700000000000  0.7868000000000001
   0.2578500000000000  0.2750800000000000  0.7425700000000000
   0.7300200000000000  0.7612500000000000  0.3442500000000000
   0.6699100000000000  0.6728900000000000  0.3858500000000000
   0.9227400000000000  0.8524300000000000  0.3654200000000000
   0.0579900000000000  0.8037200000000000  0.3967900000000000
   0.0977300000000000  0.1948200000000000  0.4202800000000000
   0.1808500000000000  0.2773900000000000  0.4663000000000000
   0.5755800000000000  0.2126900000000000  0.5447100000000000
   0.5542800000000000  0.3564200000000000  0.5601100000000000
   0.9376000000000000  0.5248400000000000  0.5404200000000000
   0.9096300000000000  0.3824500000000000  0.5605800000000000
   0.4915600000000000  0.9125200000000000  0.7285400000000000
   0.4986800000000000  0.7963700000000000  0.7632600000000000
   0.6567000000000000  0.8869400000000000  0.7955700000000000
   0.7265500000000000  0.0126400000000000  0.8190499999999999
   0.3130700000000000  0.3444400000000000  0.1988000000000000
   0.4355300000000000  0.3503500000000000  0.2315400000000000
   0.9906600000000000  0.2370400000000000  0.5122700000000000
   0.9983100000000000  0.1891600000000000  0.5697400000000000
   0.5667000000000000  0.3018000000000000  0.3473900000000000
   0.5170400000000001  0.1878500000000000  0.3164000000000000
   0.6252799999999999  0.4719700000000000  0.2340100000000000
   0.5210500000000000  0.5775800000000000  0.2330200000000000
   0.6952900000000000  0.5992800000000000  0.7027500000000000
   0.6937900000000000  0.7485900000000000  0.7220700000000000
   0.8653000000000000  0.9901400000000000  0.6862400000000000
   0.7622300000000000  0.0804600000000000  0.6646400000000000
   0.5505700000000000  0.0968300000000000  0.3810700000000000
   0.5726900000000000  0.9684900000000000  0.4179000000000000
   0.1333700000000000  0.6523099999999999  0.1970400000000000
   0.1010100000000000  0.6371000000000000  0.2542300000000000
   0.3445600000000000  0.7060999999999999  0.6745000000000000
   0.2548000000000000  0.5808100000000000  0.6787900000000000
   0.6210100000000000  0.6262900000000000  0.5273500000000000
   0.5434700000000000  0.5836700000000000  0.4766900000000000
   0.5847200000000000  0.0566600000000000  0.2425900000000000
   0.7332500000000000  0.0296600000000000  0.2412700000000000
   0.2225200000000000  0.9424300000000000  0.5498600000000000
   0.3216700000000000  0.0558400000000000  0.5623000000000000
   0.8632800000000000  0.7259600000000000  0.6558200000000000
   0.9149800000000000  0.7759700000000000  0.6046200000000000
   0.0736500000000000  0.0032700000000000  0.7997200000000000
   0.0273800000000000  0.8606400000000000  0.7868500000000000
   0.4240500000000000  0.6414000000000000  0.5311300000000000
   0.3541100000000000  0.7061700000000000  0.5859500000000000
   0.1591100000000000  0.9621700000000000  0.2653000000000000
   0.1984800000000000  0.8167900000000000  0.2421300000000000
   0.5871400000000000  0.3842600000000000  0.4429800000000000
   0.4878100000000000  0.4682000000000000  0.4041600000000000
   0.8937900000000000  0.8644600000000000  0.2275400000000000
   0.9515700000000000  0.0090000000000000  0.2282600000000000
   0.9968000000000000  0.4408000000000000  0.2624800000000000
   0.0222500000000000  0.3854900000000000  0.2043700000000000
   0.0731800000000000  0.9440200000000000  0.7169000000000000
   0.0179000000000000  0.8681300000000000  0.6693800000000000
   0.9373200000000000  0.5477500000000000  0.7973300000000000
   0.9563300000000000  0.4475400000000000  0.8420100000000000
   0.4907600000000000  0.1495600000000000  0.8391300000000000
   0.3849800000000000  0.2042600000000000  0.8002700000000000
