 # Version information for this restart file 
 # current date 2025-12-09 09:45:53.201
 # current working dir /share/home/chem-wangyg/shaofl/projects/01_project_Cu_Zn/SAC/cp2k/00_other/01_slab_explicit/reaction/co2_cooh/from_ad_water/sg
 # Program compiled at                              Wed Jan 18 08:16:45 CST 2023
 # Program compiled on                                                    node02
 # Program compiled for                                       Linux-x86-64-intel
 # Source code revision number                                       git:e635599
 &GLOBAL
   PRINT_LEVEL  LOW
   PROJECT_NAME slowgrowth
   RUN_TYPE  MD
 &END GLOBAL
 &MOTION
   &MD
     ENSEMBLE  NVT
     STEPS  10000
     TIMESTEP     9.9999999999999989E-01
     STEP_START_VAL  3200
     TIME_START_VAL     3.1999999999998072E+03
     ECONS_START_VAL    -4.0206331581388336E+03
     TEMPERATURE     3.0014999999999998E+02
     &THERMOSTAT
       TYPE  NOSE
       REGION  GLOBAL
       &NOSE
         LENGTH  3
         TIMECON     2.2237606346543473E+01
         &COORD
               7.7619764939096725E-02   -5.0334902075410346E+00   -3.1755875446042214E+00
         &END COORD
         &VELOCITY
              -3.1533812003034823E-05   -1.2260403970064955E-03   -6.9627783882199919E-04
         &END VELOCITY
         &MASS
               4.5710842896461149E+05    8.0335400521021347E+02    8.0335400521021347E+02
         &END MASS
         &FORCE
               1.1826391851478957E-07   -6.1738604462133805E-07    3.1998605108758608E-07
         &END FORCE
       &END NOSE
     &END THERMOSTAT
     &AVERAGES  T
       &RESTART_AVERAGES
         ITIMES_START  1
         AVECPU     4.8929736418038345E+01
         AVEHUGONIOT     0.0000000000000000E+00
         AVETEMP_BARO     0.0000000000000000E+00
         AVEPOT    -4.0209002386245356E+03
         AVEKIN     2.7178472771370926E-01
         AVETEMP     3.0166160526957657E+02
         AVEKIN_QM     0.0000000000000000E+00
         AVETEMP_QM     0.0000000000000000E+00
         AVEVOL     1.6569211921530190E+04
         AVECELL_A     1.9320371010008213E+01
         AVECELL_B     1.6732013125795497E+01
         AVECELL_C     5.1255230874870882E+01
         AVEALPHA     9.0000000000000000E+01
         AVEBETA     9.0000000000000000E+01
         AVEGAMMA     9.0000000000000000E+01
         AVE_ECONS     4.2243627121062715E+01
         AVE_PRESS     0.0000000000000000E+00
         AVE_PXX     0.0000000000000000E+00
       &END RESTART_AVERAGES
     &END AVERAGES
     &PRINT
       &ENERGY  SILENT
       &END ENERGY
     &END PRINT
   &END MD
   &CONSTRAINT
     &COLLECTIVE
       COLVAR  1
       INTERMOLECULAR  T
       TARGET     2.6858488554089917E+00
       TARGET_GROWTH     4.5710289242235795E-05
     &END COLLECTIVE
     &FIXED_ATOMS
       LIST  1 2 7..10 15..18 23..26 31..34 39..42 46..49 54..57 \
        62 63
     &END FIXED_ATOMS
     &LAGRANGE_MULTIPLIERS  SILENT
       COMMON_ITERATION_LEVELS  1
       FILENAME constraint_force.dat	
     &END LAGRANGE_MULTIPLIERS
   &END CONSTRAINT
   &PRINT
     &TRAJECTORY  SILENT
       &EACH
         MD  5
       &END EACH
     &END TRAJECTORY
     &VELOCITIES  SILENT
       &EACH
         MD  5
       &END EACH
     &END VELOCITIES
     &RESTART  SILENT
       &EACH
         MD  10
       &END EACH
     &END RESTART
   &END PRINT
 &END MOTION
 &FORCE_EVAL
   METHOD  QS
   &DFT
     BASIS_SET_FILE_NAME BASIS_MOLOPT
     POTENTIAL_FILE_NAME GTH_POTENTIALS
     WFN_RESTART_FILE_NAME ./1-RESTART.wfn
     UKS  T
     CHARGE  0
     &SCF
       MAX_SCF  80
       EPS_SCF     1.0000000000000001E-05
       SCF_GUESS  RESTART
       &OT  T
         MINIMIZER  BROYDEN
         BROYDEN_BETA     9.0000000000000002E-01
         BROYDEN_SIGMA     1.0000000000000001E-01
         LINESEARCH  2PNT
         PRECONDITIONER  FULL_ALL
       &END OT
       &OUTER_SCF  T
         EPS_SCF     1.0000000000000001E-05
         MAX_SCF  50
       &END OUTER_SCF
       &MIXING  T
         METHOD  BROYDEN_MIXING
         ALPHA     2.0000000000000001E-01
         BETA     1.5000000000000000E+00
         NBUFFER  32
       &END MIXING
       &PRINT
         &RESTART_HISTORY  SILENT
           ADD_LAST  NUMERIC
           FILENAME = MD_RESTART_HISTORY.wfn
           BACKUP_COPIES  5
           &EACH
           &END EACH
         &END RESTART_HISTORY
       &END PRINT
     &END SCF
     &QS
       EPS_DEFAULT     9.9999999999999998E-13
       EPS_PGF_ORB     9.9999999999999995E-07
       EXTRAPOLATION  ASPC
       EXTRAPOLATION_ORDER  3
     &END QS
     &MGRID
       NGRIDS  20
       CUTOFF     4.0000000000000000E+02
       REL_CUTOFF     4.0000000000000000E+01
     &END MGRID
     &XC
       DENSITY_CUTOFF     1.0000000000000000E-10
       GRADIENT_CUTOFF     1.0000000000000000E-10
       TAU_CUTOFF     1.0000000000000000E-10
       &XC_GRID
         XC_SMOOTH_RHO  NN10
         XC_DERIV  SPLINE2_SMOOTH
       &END XC_GRID
       &XC_FUNCTIONAL  NO_SHORTCUT
         &PBE  T
         &END PBE
       &END XC_FUNCTIONAL
       &VDW_POTENTIAL
         POTENTIAL_TYPE  PAIR_POTENTIAL
         &PAIR_POTENTIAL
           R_CUTOFF     1.0000000000000002E+01
           TYPE  DFTD3
           PARAMETER_FILE_NAME dftd3.dat
           REFERENCE_FUNCTIONAL PBE
         &END PAIR_POTENTIAL
       &END VDW_POTENTIAL
     &END XC
     &PRINT
       &MULLIKEN  SILENT
         FILENAME =CHARGE.mulliken
         &EACH
           MD  5
         &END EACH
       &END MULLIKEN
     &END PRINT
   &END DFT
   &SUBSYS
     &CELL
       A     1.0223900000000002E+01    0.0000000000000000E+00    0.0000000000000000E+00
       B     0.0000000000000000E+00    8.8542000000000023E+00    0.0000000000000000E+00
       C     0.0000000000000000E+00    0.0000000000000000E+00    2.7123100000000001E+01
       PERIODIC  XYZ
       MULTIPLE_UNIT_CELL  1 1 1
     &END CELL
     &COORD
Cu    2.4540000000000005E-03    7.8799999999999999E-03    1.7141800000000003E+00
Cu    1.2808500000000000E+00    2.2199250000000004E+00    1.7277410000000002E+00
Cu    1.0367855152881393E+01    8.9081868635963648E+00    8.0550246308309461E+00
Cu    1.3937261931577600E+00    2.2312704321358550E+00    8.0758434299314512E+00
Cu    1.3403839591872517E+00    6.4055387978831546E-01    5.8950609676061774E+00
Cu    1.0333737423956828E+01    2.9483394441962036E+00    5.8385231612671307E+00
Cu    3.3740000000000003E-03    1.4870630000000000E+00    3.8189320000000002E+00
Cu    1.2823840000000002E+00    3.7053060000000002E+00    3.8078120000000002E+00
Cu    2.5589400000000002E+00    6.7290000000000006E-03    1.7092980000000000E+00
Cu    3.8391769999999998E+00    2.2200139999999999E+00    1.7320810000000000E+00
Cu    2.6977679487338495E+00    8.8136151444745572E+00    7.9415342632296291E+00
Cu    3.9222938686343198E+00    2.2229505374276783E+00    7.8288745852013699E+00
Cu    3.9266818295541310E+00    7.3040731515069102E-01    5.8514392235477040E+00
Cu    2.4988353701083965E+00    2.9683229737786663E+00    5.8775137297100208E+00
Cu    2.5574059999999998E+00    1.4880370000000001E+00    3.8156780000000001E+00
Cu    3.8393809999999999E+00    3.7055710000000004E+00    3.8156780000000001E+00
Cu    5.1146079999999996E+00    7.3490000000000005E-03    1.7109250000000000E+00
Cu    6.3954580000000005E+00    2.2222270000000002E+00    1.7372350000000001E+00
Cu    5.2248591123155252E+00    8.8535336252156167E+00    7.8790045408114437E+00
Cu    6.3919906979740864E+00    2.3017282512602568E+00    7.8705372310062245E+00
Cu    6.4708764848275466E+00    7.8651641872541389E-01    5.8153453993022826E+00
Cu    5.1675732453115586E+00    3.0289246158553116E+00    5.8447280885458346E+00
Cu    5.1138930000000009E+00    1.4871510000000001E+00    3.8173050000000002E+00
Cu    6.3999570000000006E+00    3.7092900000000006E+00    3.8224580000000001E+00
Cu    7.6702760000000012E+00    8.2340000000000000E-03    1.7158070000000001E+00
Cu    8.9519450000000003E+00    2.2216070000000001E+00    1.7326239999999999E+00
Cu    7.8047453300558010E+00    8.9382315174054199E+00    7.8093841927479417E+00
Cu    9.0875142470969568E+00    2.1594956672766781E+00    7.9941400015052233E+00
Cu    9.0122663349409287E+00    7.9305763133492269E-01    5.7829083824235621E+00
Cu    7.7761881676111448E+00    3.0582818399461140E+00    5.8552850990995902E+00
Cu    7.6719119999999998E+00    1.4916670000000001E+00    3.8202889999999998E+00
Cu    8.9542959999999994E+00    3.7088470000000004E+00    3.8143220000000007E+00
Cu    1.6360000000000001E-03    4.4379910000000011E+00    1.7128240000000001E+00
Cu    1.2819750000000003E+00    6.6471140000000002E+00    1.7261139999999999E+00
Cu    1.0314482609042663E+01    4.5637296892738597E+00    7.9013787688510027E+00
Cu    1.3097476184477639E+00    6.7508149572636320E+00    7.8987892389062475E+00
Cu    1.3157547669225060E+00    5.2149576560687789E+00    5.8078104194569331E+00
Cu    1.0092742504737865E+01    7.3780934373600688E+00    5.7721836022878588E+00
Cu    2.9650000000000002E-03    5.9166420000000004E+00    3.8197459999999999E+00
Cu    1.2883140000000002E+00    8.1312549999999995E+00    3.8078120000000002E+00
Cu    2.5585310000000003E+00    4.4337410000000004E+00    1.7190620000000001E+00
Cu    3.8385630000000006E+00    6.6445460000000001E+00    1.7347930000000003E+00
Cu    3.7956693824068801E+00    6.7327845446422199E+00    8.1094647348994471E+00
Cu    3.8003403445129926E+00    5.1149798446317662E+00    5.8726153032055448E+00
Cu    2.5331892179026974E+00    7.2981707253447006E+00    5.8249758621149939E+00
Cu    2.5576110000000001E+00    5.9146060000000000E+00    3.8192040000000005E+00
Cu    3.8414260000000002E+00    8.1322290000000006E+00    3.8067270000000004E+00
Cu    5.1151190000000009E+00    4.4341830000000000E+00    1.7293689999999999E+00
Cu    6.3944359999999998E+00    6.6463169999999998E+00    1.7385910000000000E+00
Cu    2.5706216167885829E+00    4.4963309319971865E+00    8.0037011958598541E+00
Cu    6.4471894944649151E+00    6.6463278736582696E+00    8.0407658386503833E+00
Cu    6.4261032538878959E+00    5.1928891967914508E+00    5.9661857012446529E+00
Cu    4.9997826008830142E+00    7.3028845935308011E+00    5.8988296750646967E+00
Cu    5.1140970000000001E+00    5.9151369999999996E+00    3.8257129999999999E+00
Cu    6.3981170000000001E+00    8.1359469999999998E+00    3.8107960000000003E+00
Cu    7.6704809999999997E+00    4.4362200000000005E+00    1.7266570000000003E+00
Cu    8.9506150000000009E+00    6.6487960000000008E+00    1.7307250000000001E+00
Cu    7.7461251037953245E+00    4.4531233430921437E+00    8.0073238668771545E+00
Cu    8.9958481445938823E+00    6.6849407123463092E+00    7.7895634303938071E+00
Cu    8.9082479907556902E+00    5.2758833599560218E+00    5.8104848246799952E+00
Cu    7.5021323587514592E+00    7.3538667317301050E+00    5.8185476012719857E+00
Cu    7.6717080000000006E+00    5.9204489999999996E+00    3.8232719999999998E+00
Cu    8.9521490000000021E+00    8.1351499999999994E+00    3.8124229999999999E+00
Zn    5.0582875533730007E+00    4.6243517399369320E+00    8.0915750919374361E+00
O   -1.1076342786648541E+00    8.3524099841092547E-01    1.0505442369366955E+01
H   -1.8180226556760535E+00    1.5535853713659349E+00    1.0231383748369556E+01
H   -2.4467259489540621E-01    1.3073106264774368E+00    1.0496920753278840E+01
O    2.3510630689420577E+00    7.6454923116528271E+00    2.5300390778728275E+01
H    1.2968373761784768E+00    7.5519786917168146E+00    2.5185515082120990E+01
H    2.4064824901542270E+00    8.0831955426989754E+00    2.6234223060693669E+01
O    4.0970442058914438E+00    5.6498607458425605E+00    2.5209742119279820E+01
H    3.3851352883167602E+00    6.3301493699726974E+00    2.5086337451257180E+01
H    3.6390102751498810E+00    4.7366433157285748E+00    2.5506334177411709E+01
O    1.0915378237950682E+01    2.8198198857204968E+00    1.7410728484566867E+01
H    1.0948922945368912E+01    3.8281385167459452E+00    1.7608647376613419E+01
H    1.1389837773356962E+01    2.7458634521696497E+00    1.6558965818725024E+01
O    4.2790351071203370E+00    4.2931813352870245E+00    1.8599352092746457E+01
H    4.8952212669578881E+00    3.5100738923516421E+00    1.8606896359533359E+01
H    3.9689436668241558E+00    4.4446870676447672E+00    1.9545450370778958E+01
O    7.4342373198167744E+00    2.8153770910544447E+00    9.6071300364600578E+00
H    6.6979313889804439E+00    3.0565669448890995E+00    1.0239074561738308E+01
H    8.1024905656200001E+00    5.0700947005420831E+00    1.0255253953782214E+01
O    5.2620392846382416E+00    3.0772232911461179E+00    1.1213236193168543E+01
H    5.0882152993202521E+00    2.0897186132954126E+00    1.0984779838928247E+01
H    5.5917007441738207E+00    3.0991991551534714E+00    1.2126381026670382E+01
O    1.2323605484298323E+00    2.1467762695068782E+00    1.0354866831298001E+01
H    8.8957346821706718E-01    3.0469564157168652E+00    1.0440489383354155E+01
H    1.9234018608991530E+00    1.9125013336888743E+00    1.1153709852770234E+01
O    1.0119281814733778E+01    7.2318268440585802E+00    2.5003996346490414E+01
H    9.7334931043148760E+00    6.7283252400958675E+00    2.4285485056891904E+01
H    9.6540126077996540E+00    8.0712429712513938E+00    2.5232264805857127E+01
O    5.0622039555416469E+00    9.3083098616527220E+00    1.0081706509054538E+01
H    4.4133767566143192E+00    8.7101629635462050E+00    1.0534523470632985E+01
H    5.9857268897899862E+00    8.7609871081546125E+00    1.0226384897182955E+01
O    6.1561177685225328E+00    2.1975061637443924E+00    2.6569655934273456E+01
H    6.3616415411626948E+00    1.3282210009652102E+00    2.6155301900855150E+01
H    6.9384829275697983E+00    2.8292884598397969E+00    2.6258559326535412E+01
O    8.1210108990081498E+00   -1.5560567194958594E+00    1.7422509737326106E+01
H    8.7236290763659952E+00   -1.8672670733448866E+00    1.8086914146275944E+01
H    7.2723663076294081E+00   -1.9053323656847252E+00    1.7769752529306253E+01
O    2.3311303035503110E+00    2.0009221382247127E+00    1.5081281716373628E+01
H    3.1168483448784663E+00    1.6831838572115370E+00    1.5615217308835781E+01
H    2.6223472539280102E+00    2.9238485157646141E+00    1.4790746114942205E+01
O    3.3860735853469870E+00    3.0017184351583048E+00    2.5643554498598419E+01
H    2.9050298275212114E+00    3.0766975752315235E+00    2.6460894413144633E+01
H    4.3581882450511067E+00    2.8088119396734474E+00    2.5960764203304045E+01
O    6.9093990317376575E+00    1.3233697583796777E+00    2.2987935260494037E+01
H    7.3359540788998912E+00    1.1622739227235142E+00    2.2082606730693694E+01
H    6.8501177394571364E+00    2.3392527405335017E+00    2.3023947333401100E+01
O    5.4476925166366712E+00   -2.2402622697072583E+00    1.7885796911933923E+01
H    5.0179467746389914E+00   -2.0157075660929684E+00    1.6920619648412160E+01
H    5.1029470911720081E+00   -3.1878665835025775E+00    1.8094560995391056E+01
O    9.9717615726672317E+00    4.3188068684835255E+00    1.0679782626638687E+01
H    1.0079634559262706E+01    5.3166558961602455E+00    1.0649188745454492E+01
H    9.7669995784587780E+00    4.2510418636238194E+00    1.1671824673612033E+01
O   -9.3194455678320798E-02    2.2266643239111206E+00    2.3073000407638773E+01
H    8.3128382727173844E-01    2.0761846671401165E+00    2.2589322718200226E+01
H   -7.0330384803502333E-01    1.9171708819981361E+00    2.2345103788465217E+01
O    1.6705644596781475E+00    6.1436037193876176E+00    2.1656414864734195E+01
H    2.1881760354844402E+00    6.9069281281094819E+00    2.2080802782213723E+01
H    1.1056741315568592E+00    5.7009639936934633E+00    2.2298024331380841E+01
O    6.3703922754713291E+00    6.2639236841395993E+00    2.6423846597881909E+01
H    6.4973489028922335E+00    7.2105165179744031E+00    2.6072926202542973E+01
H    5.4669946141938359E+00    6.0309761696729156E+00    2.6083565035755164E+01
O    5.3109574418801584E+00   -6.8894832367153236E-01    2.1903085400441739E+01
H    5.4438410794681875E+00   -1.5402707524597734E+00    2.2431043441579522E+01
H    5.9869086613876021E+00   -2.5352776775107121E-02    2.2251611593086487E+01
O    8.2043561817781132E+00   -2.7102822796124997E+00    1.4611092158404535E+01
H    8.5304662048569462E+00   -3.5907158055352499E+00    1.4292264941897018E+01
H    8.0778430134231236E+00   -2.7270688457043111E+00    1.5607223781906921E+01
O    6.4303950087393895E+00    7.8570291941260022E+00    1.3430296453217649E+01
H    6.4327006348476026E+00    7.6006708666304226E+00    1.2462928473018652E+01
H    7.0976774454232601E+00    7.1343695536034053E+00    1.3760658701795935E+01
O    3.5554318921668071E+00    4.1614183902101347E+00    2.1368082974155996E+01
H    2.7436713777257395E+00    4.7408711125924805E+00    2.1396878027788290E+01
H    3.3502580516241696E+00    3.2765040596493353E+00    2.1557672540368962E+01
O    2.0775445775370960E+00    1.7610811682724747E+00    2.1564784531078676E+01
H    2.3615535423942546E+00    8.8847667806916975E-01    2.1993066325460703E+01
H    2.1781255186564339E+00    1.5731504507915328E+00    2.0587481502405943E+01
O    9.6126588164377580E+00    3.9566568145456342E+00    1.3368716540887913E+01
H    9.5503354774055982E+00    3.1606454645223212E+00    1.3847083042310107E+01
H    1.0558996277079041E+01    4.2463446299463419E+00    1.3521652586328862E+01
O    5.2759327208965647E+00    5.6269287921287372E+00    2.2893205602326834E+01
H    4.7330252671645550E+00    5.0784102356701766E+00    2.2213922063544999E+01
H    4.7863478321594437E+00    5.5110535468051651E+00    2.3782122832405751E+01
O    1.0188965832114928E+01   -3.7000808528376941E+00    2.3448242316968035E+01
H    1.0542632828425237E+01   -4.2899309697824224E+00    2.4124199428179239E+01
H    9.4895441912696512E+00   -4.2387222005340597E+00    2.2970767654297902E+01
O    4.6514924006099880E+00   -1.5009074045650883E+00    1.5250409416689878E+01
H    5.1358373662719856E+00   -1.2798064349851368E+00    1.4434703440962787E+01
H    3.6980527154258178E+00   -1.6367567631648416E+00    1.4995364537390703E+01
O    8.1112131789797068E+00    4.1002908171520085E+00    2.5840048285756755E+01
H    9.0438406565727885E+00    4.1174576401842797E+00    2.6055285798991257E+01
H    7.6757475379372515E+00    4.8601089490662899E+00    2.6267878174936765E+01
O    8.7657998260264254E+00    1.1326467303921381E+00    1.8304511619272485E+01
H    9.3703913946759556E+00    1.7271041627336385E+00    1.7769644028567438E+01
H    8.7181602071523354E+00    2.6575173541273628E-01    1.7861757076575216E+01
O   -2.6799454094083790E-02   -9.1718231462506583E-01    1.3979059059987797E+01
H   -5.2933445871081286E-01   -8.0696772802955910E-02    1.3835757109719765E+01
H   -7.6571422351346041E-01   -1.5141588367637009E+00    1.4314573446991680E+01
O    2.5959248144663696E+00    1.4295650071516572E+00    1.2427963043392889E+01
H    2.9624798773688505E+00    5.0697159310263784E-01    1.2334699061165265E+01
H    2.4258379143713644E+00    1.5328650270840145E+00    1.3405232322158037E+01
O    1.9290822149909252E+00    5.7177172284772415E-01    1.9002353430411130E+01
H    2.8504434096034079E+00    4.4487110543871988E-01    1.8733622173527333E+01
H    1.5008638373393766E+00    1.2399182301792331E+00    1.8422852466886315E+01
O    7.4426254253216193E+00    4.0507344628123931E+00    2.3230252297242654E+01
H    6.6553259146387012E+00    4.6354644011578641E+00    2.3127442102421835E+01
H    7.6433768985619270E+00    4.0473364178800599E+00    2.4205586315934294E+01
O    1.1726348435967195E+01    5.2549046667771000E+00    1.7686285735218149E+01
H    1.2573807056673132E+01    4.8745519444056677E+00    1.8014418584912605E+01
H    1.1273260154776457E+01    5.8395356716810376E+00    1.8330846853092524E+01
O    2.0124191754067637E+00    4.5018094607180181E+00    1.3726382375042281E+01
H    2.1096626384982646E+00    5.3409649374995238E+00    1.4239173861515349E+01
H    2.4140134583590389E+00    4.6500096939089017E+00    1.2838481167646210E+01
O    6.1422495093370708E+00    2.8237594604236498E+00    1.3918753421944476E+01
H    5.6896297671733747E+00    2.2730711280663987E+00    1.4552359619788025E+01
H    7.0400507822201810E+00    2.6290654092061088E+00    1.3880960375982788E+01
O    3.2853833293431283E+00    4.8622425093610921E+00    1.1530935132869102E+01
H    2.7637559673542307E+00    4.5586652964366667E+00    1.0725843841631228E+01
H    4.0985691778097939E+00    4.2882406253482994E+00    1.1423923177000683E+01
O    5.8833121021581656E+00    1.9533987242524822E+00    1.8080572196561111E+01
H    6.8938081727316334E+00    1.9445828256781585E+00    1.7967637793383304E+01
H    5.6072366538883260E+00    1.0894101954246935E+00    1.8467473333844978E+01
O    8.6652991075140271E+00    5.7718505958364374E-01    2.0886307671511503E+01
H    8.6440049185795580E+00   -3.6842808981962244E-01    2.0945582617273274E+01
H    8.8592591236168321E+00    8.4227052364828103E-01    1.9935178793015307E+01
O    4.7988033720317080E+00    1.3834090378335975E+00    1.5819833203196545E+01
H    4.8209673369130126E+00    4.0458403574228979E-01    1.5887603388034726E+01
H    5.1730757950157908E+00    1.8118506753052563E+00    1.6680196446550212E+01
O    4.6068968249418214E+00   -1.8369899388612146E-01    1.9226513815047781E+01
H    4.7576722655784911E+00   -4.8145918657104742E-01    2.0221643426351211E+01
H    4.8078827400183046E+00   -1.0389215523510840E+00    1.8801794371840682E+01
O    2.7250907483703433E+00   -4.7516859963850316E-01    2.2784792818890125E+01
H    3.7078839701847794E+00   -2.9632347760851502E-01    2.2661497867831798E+01
H    2.6139980407815409E+00   -4.2056728338096466E-01    2.3800989095934554E+01
O    2.0321591204642271E+00   -2.1075566218220878E+00    1.5274076890379554E+01
H    1.2722293035311940E+00   -1.5493973858077399E+00    1.4893617706892220E+01
H    1.7513580494498677E+00   -2.3993386555774987E+00    1.6159972868354508E+01
O    1.5989092619947390E-01   -1.9856608380468759E+00    1.9332698122421046E+01
H    5.3448231611386721E-01   -2.1681144022385075E+00    2.0219057217732935E+01
H    6.9435553277359396E-01   -1.1563642708438593E+00    1.9158966764180203E+01
O   -2.9770737783025196E+00   -1.7464461326445600E-02    2.5308235687050029E+01
H   -3.2402218760523271E+00    5.6652961862673934E-01    2.4556490910260052E+01
H   -2.0703927720365032E+00    3.7873826660387189E-01    2.5467706900751114E+01
O    8.4699100185321008E+00    1.1012287543435009E+00    1.3327561288531747E+01
H    7.6536483490762750E+00    5.8044035469109267E-01    1.3322947949192638E+01
H    8.7558311811150134E+00    9.9931552483647601E-01    1.2398579758413060E+01
O    9.4898974752889398E+00    1.2543720352134369E+00    2.5411911100690574E+01
H    1.0074550819879150E+01    1.3739705439687628E+00    2.6175835813176732E+01
H    9.8333330198190385E+00    1.5414828769376485E+00    2.4504183884806210E+01
O    3.0190886588272843E+00    7.8000604401634153E+00    1.1351562271598421E+01
H    2.0694570142854096E+00    7.8596289733471751E+00    1.1264409507513012E+01
H    3.2666788263258337E+00    6.8530550289371570E+00    1.1249277724841020E+01
O    2.6274183947195240E-01    7.2328007051515515E+00    1.0987531763974737E+01
H   -5.5857371588254123E-01    7.6183538972692002E+00    1.0610388550330875E+01
H    1.2058058974100216E-01    7.2415569683658054E+00    1.1943201901740727E+01
O    5.3033363938190248E-01    4.6210971405292112E+00    2.6011497444629100E+01
H    1.2575936005922816E+00    4.3997185321927548E+00    2.6724407165958137E+01
H    2.2547090476201695E-01    5.4984285721698507E+00    2.6253189246699090E+01
O    7.5287987937280398E+00    5.7180049539137290E+00    1.0791459542619739E+01
C    7.0141869285871588E+00    6.7165096823655093E+00    9.9766629980121131E+00
O    6.8857479505781285E+00    7.7755886098700122E+00    1.0663947465599957E+01
     &END COORD
     &VELOCITY
           0.0000000000000000E+00    0.0000000000000000E+00    0.0000000000000000E+00
           0.0000000000000000E+00    0.0000000000000000E+00    0.0000000000000000E+00
          -8.4127598509954246E-06    3.9242074327102424E-05   -2.3145053406787878E-04
           2.4457010555949506E-04   -9.7590987560845958E-05   -4.8936520205773261E-05
          -9.1329298228772982E-05   -5.1678667218119935E-05    1.9994990301322481E-05
          -8.3699510512986390E-05   -5.4777002738475747E-05   -3.2709531648215647E-05
           0.0000000000000000E+00    0.0000000000000000E+00    0.0000000000000000E+00
           0.0000000000000000E+00    0.0000000000000000E+00    0.0000000000000000E+00
           0.0000000000000000E+00    0.0000000000000000E+00    0.0000000000000000E+00
           0.0000000000000000E+00    0.0000000000000000E+00    0.0000000000000000E+00
          -3.3385676095252293E-05   -6.0257424674212350E-05   -3.6032574312076557E-05
           6.8242732866626504E-05    5.0674353441909146E-05    4.1642708656132282E-05
          -9.0119036979590650E-05   -5.4595733134590222E-05   -1.7575453518541676E-04
           8.7620537043260765E-05   -1.1791532289074223E-04    7.8451933236322122E-05
           0.0000000000000000E+00    0.0000000000000000E+00    0.0000000000000000E+00
           0.0000000000000000E+00    0.0000000000000000E+00    0.0000000000000000E+00
           0.0000000000000000E+00    0.0000000000000000E+00    0.0000000000000000E+00
           0.0000000000000000E+00    0.0000000000000000E+00    0.0000000000000000E+00
           1.2069952960801321E-04   -6.5188656975581454E-05    1.5633023640999278E-04
           3.8484023221046742E-05    3.6667863296826495E-05    3.0505750493910107E-05
           2.4438766589541346E-06   -4.3372828442233959E-05   -1.2151704597047770E-05
           2.1580336037133196E-04    2.9972423498853272E-05    2.6941667267527363E-05
           0.0000000000000000E+00    0.0000000000000000E+00    0.0000000000000000E+00
           0.0000000000000000E+00    0.0000000000000000E+00    0.0000000000000000E+00
           0.0000000000000000E+00    0.0000000000000000E+00    0.0000000000000000E+00
           0.0000000000000000E+00    0.0000000000000000E+00    0.0000000000000000E+00
          -4.9218710905620052E-05    5.2028848643113530E-05   -1.6672959549643613E-04
           5.9375679152833194E-05   -7.9755928838853512E-05   -7.2346389830216842E-05
          -1.4407815170846988E-04   -1.0160342695894359E-04   -4.1828382234958508E-05
          -2.1839769538225208E-05    1.0210370262562696E-04    7.4729885564145298E-05
           0.0000000000000000E+00    0.0000000000000000E+00    0.0000000000000000E+00
           0.0000000000000000E+00    0.0000000000000000E+00    0.0000000000000000E+00
           0.0000000000000000E+00    0.0000000000000000E+00    0.0000000000000000E+00
           0.0000000000000000E+00    0.0000000000000000E+00    0.0000000000000000E+00
          -1.8696500671299679E-04    6.5500829890432734E-05   -4.5298694987926006E-05
          -7.1118129205035213E-05    2.4805141232055053E-05    6.6705207170422089E-06
          -9.6661866205122849E-05    6.1283206129239534E-05   -1.3356609300313896E-04
           1.5687032620973398E-04    3.2937876964702605E-05    9.3131083657163675E-05
           0.0000000000000000E+00    0.0000000000000000E+00    0.0000000000000000E+00
           0.0000000000000000E+00    0.0000000000000000E+00    0.0000000000000000E+00
           0.0000000000000000E+00    0.0000000000000000E+00    0.0000000000000000E+00
           0.0000000000000000E+00    0.0000000000000000E+00    0.0000000000000000E+00
           1.6276479196089796E-04    8.9781828270757495E-05   -1.3501236427757298E-04
          -8.6042839713021922E-05   -1.2116940366612191E-04    1.6657610781249020E-04
          -5.3637604710545257E-05   -6.1499859284881844E-05   -1.9059051990370058E-04
           0.0000000000000000E+00    0.0000000000000000E+00    0.0000000000000000E+00
           0.0000000000000000E+00    0.0000000000000000E+00    0.0000000000000000E+00
           0.0000000000000000E+00    0.0000000000000000E+00    0.0000000000000000E+00
           0.0000000000000000E+00    0.0000000000000000E+00    0.0000000000000000E+00
           1.1600101487602232E-04    2.4449612723033426E-04   -2.8720115765600671E-05
          -1.4560170587815595E-05   -1.8093433256505015E-04   -1.0181572876585414E-04
          -7.5958375013314585E-05    1.2186065680860692E-04   -1.2261862981599636E-05
          -2.5447305602087807E-05   -3.5060361346488491E-05   -6.2910877986601559E-05
           0.0000000000000000E+00    0.0000000000000000E+00    0.0000000000000000E+00
           0.0000000000000000E+00    0.0000000000000000E+00    0.0000000000000000E+00
           0.0000000000000000E+00    0.0000000000000000E+00    0.0000000000000000E+00
           0.0000000000000000E+00    0.0000000000000000E+00    0.0000000000000000E+00
           7.9076367288279028E-05    1.2804240770844852E-04    1.0651827361247461E-05
           9.3514704772321502E-06    1.3777467663059134E-05   -4.4570231465048417E-05
          -4.1537781927429890E-06   -2.0980967740282182E-05   -5.4089028310496102E-05
           1.0079206599283945E-04   -1.1802664877952531E-04    1.3899524933806820E-04
           0.0000000000000000E+00    0.0000000000000000E+00    0.0000000000000000E+00
           0.0000000000000000E+00    0.0000000000000000E+00    0.0000000000000000E+00
           8.6272060400664102E-05    7.0346362954026951E-06    5.0888084848830318E-05
          -1.0953894070659866E-04   -2.2776863327737620E-04    1.1902840385522889E-04
          -4.9412567190428678E-05   -4.0976277905190365E-04    2.4545928195031797E-04
           9.0713654390783610E-04    5.9910231055698249E-04   -2.8972583574655167E-04
          -9.9523004762710546E-05    2.4477877878060610E-04    1.2490554816076585E-04
          -4.5641579254500884E-04   -3.7821910892310123E-04    3.3530207268538777E-05
           6.6626250537023723E-04    5.7168667087161293E-05    2.7038907196914245E-04
           3.2735961625766088E-05   -2.6032302489981452E-05   -7.2197079533342667E-05