274
traj_1000
Cu    9.626109    0.094367    25.993171
Cu    2.006236    2.617830    25.934514
Cu    9.612306    10.164090    3.070765
Cu    1.930988    2.795828    3.064159
Cu    2.043042    0.241386    25.943762
Cu    9.664039    2.743993    25.860268
Cu    2.012881    0.166854    3.006295
Cu    9.588996    2.677537    3.061517
Cu    3.443818    1.437276    24.266757
Cu    0.616194    4.104180    23.979550
Cu    3.255596    1.443308    1.502355
Cu    0.723545    3.942336    1.089115
Cu    0.651262    1.480318    24.012578
Ag    3.344135    3.975972    23.916138
Cu    0.508128    1.421531    1.319250
Cu    3.271341    4.061955    1.198238
Cu    4.690828    0.140170    25.862910
Cu    7.012880    2.646457    25.961465
Cu    4.710662    0.076475    3.230354
Cu    7.040586    2.595644    3.388622
Cu    7.016969    0.148860    25.999512
Cu    4.543194    2.571720    26.142191
Cu    7.173395    10.145278    3.040115
Cu    4.432674    2.661179    3.066802
Cu    8.457312    1.398834    24.313524
Cu    6.055411    3.951435    24.033715
Cu    8.325526    1.522134    1.385834
Cu    5.931907    3.831202    1.356241
Cu    5.855739    1.619261    24.165033
Cu    8.390550    4.061853    24.049040
Cu    5.753704    1.312544    1.505790
Cu    8.358549    4.007462    1.193482
Cu    9.657291    5.295265    25.858419
Cu    2.121050    7.795724    25.896995
Cu    9.801244    5.195173    3.060196
Cu    1.972599    7.767199    3.228504
Cu    2.019220    5.202738    25.888540
Cu    9.803800    7.803903    25.875857
Cu    1.919435    5.322051    3.057025
Cu    9.690417    7.712501    3.085825
Cu    3.179633    6.611694    24.121436
Cu    0.782231    9.327775    24.216027
Cu    3.223289    6.527756    1.348315
Cu    0.792863    9.022490    1.238399
Cu    0.796646    6.479806    23.933840
Cu    3.305489    9.177177    24.015484
Cu    0.691238    6.560983    1.279353
Cu    3.244146    9.025659    1.249232
Cu    4.636948    5.318166    25.954859
Cu    7.207032    7.792554    25.835432
Ag    4.561495    5.280133    3.473436
Cu    7.063795    7.791123    3.277913
Cu    7.039462    5.211020    25.871101
Cu    4.682239    7.922296    25.817465
Cu    7.261934    5.206214    3.043286
Cu    4.609752    7.794395    3.087146
Cu    8.619463    6.551373    24.022090
Cu    5.973620    9.019831    23.932255
Cu    8.311417    6.477863    1.252667
Cu    5.875062    8.998668    1.252667
Cu    5.706163    6.519065    23.989855
Cu    8.473977    9.076369    24.073348
Cu    5.819239    6.525915    1.247911
Cu    8.462527    9.110415    1.302340
 O    6.310293    6.976789    6.255408
 H    5.936405    7.317041    5.403563
 H    5.991205    7.540024    6.999188
 O    8.721600    6.149369    5.975071
 H    7.794088    6.376135    6.007306
 H    9.017480    6.103771    4.965751
 O    1.140578    1.118290    17.017882
 H    0.880380    0.314794    17.597845
 H    1.565790    0.736325    16.195101
 O    4.265718    0.099070    5.307387
 H    3.931090    9.559142    5.918528
 H    3.786626    1.000715    5.562888
 O    0.958695    9.979958    6.285794
 H    0.440139    0.576321    6.340223
 H    1.300173    9.892441    5.311615
 O    5.697882    2.372456    12.001665
 H    5.788772    2.411102    13.004380
 H    6.656372    2.372763    11.614054
 O    0.959615    5.297821    16.952619
 H    1.257233    4.732950    16.262477
 H    0.373275    5.945198    16.459056
 O    7.986604    1.754217    21.040103
 H    7.908084    1.421429    20.108992
 H    7.536855    2.626111    21.139185
 O    7.041609    4.233410    20.823178
 H    7.961760    4.641651    20.817894
 H    6.840505    4.101726    19.928265
 O    1.693487    7.327674    13.009929
 H    2.224925    6.764848    13.645113
 H    2.321848    7.899905    12.513988
 O    6.834677    2.978222    17.053023
 H    6.690418    2.663428    16.110815
 H    7.815149    3.151006    17.086579
 O    0.345466    1.600654    21.859977
 H    9.602798    1.667723    21.549255
 H    0.836519    2.270421    21.365093
 O    5.919331    5.222777    18.131041
 H    4.990695    5.417951    17.977000
 H    6.185971    4.392801    17.616604
 O    8.146608    3.403434    8.507884
 H    7.797462    4.351087    8.610137
 H    8.603003    3.249667    7.642299
 O    6.693996    5.737244    15.029626
 H    6.194354    5.288415    15.785295
 H    7.558632    5.129126    14.920239
 O    8.372658    2.156118    11.096976
 H    8.482463    2.384827    10.198628
 H    9.275838    2.021776    11.390260
 O    4.078314    8.174110    16.635820
 H    3.388916    8.844594    16.478873
 H    4.938655    8.745626    16.521941
 O    3.685614    3.988957    8.908177
 H    4.566709    3.622839    8.633389
 H    3.485430    4.652897    8.200068
 O    7.501684    2.510888    5.593009
 H    7.295162    1.666189    6.081023
 H    8.482565    2.659134    5.643211
 O    3.625702    0.592373    13.636394
 H    3.538901    1.436253    13.123015
 H    4.356199    0.111543    13.073606
 O    3.024434    8.032203    10.776477
 H    3.850934    8.075552    10.244602
 H    2.600551    8.918206    10.740015
 O    3.248644    9.391675    21.865526
 H    3.506491    0.115837    21.710693
 H    2.294448    9.230750    21.654679
 O    8.312644    8.004394    20.510606
 H    7.877822    7.787340    19.611201
 H    7.671197    8.432673    21.149490
 O    2.827113    3.196093    13.139396
 H    3.335956    3.928227    12.675690
 H    2.946528    3.483896    14.118067
 O    8.930781    4.983538    11.809841
 H    8.617930    4.153050    11.391053
 H    9.639093    5.202432    11.170429
 O    3.597688    3.682547    15.680400
 H    3.573458    4.718330    15.531116
 H    3.438911    3.423882    16.629478
 O    2.955525    5.829054    21.174855
 H    2.330334    6.452303    21.726282
 H    3.063796    6.298638    20.266731
 O    9.360185    3.781207    18.327092
 H    10.005415    4.373478    17.835378
 H    9.382984    4.257641    19.182372
 O    5.703607    9.386256    12.644777
 H    6.468662    9.775378    13.146530
 H    5.711275    8.405579    12.939910
 O    2.977404    2.632348    18.049132
 H    2.250383    2.120232    17.615812
 H    3.808709    2.081279    18.272927
 O    0.597587    5.364889    7.723415
 H    0.478581    5.667823    8.645543
 H    10.057557    5.857579    7.244912
 O    7.513135    10.129124    14.514926
 H    8.098658    0.672324    14.617443
 H    8.209485    9.395560    14.363263
 O    9.103258    8.852568    9.597263
 H    8.979754    8.928123    8.635238
 H    8.251812    9.140064    10.094789
 O    9.195376    7.456699    13.693202
 H    10.134134    7.545647    13.314574
 H    8.738265    6.683159    13.255653
 O    5.102135    7.841834    8.702878
 H    4.402411    8.199977    8.113139
 H    5.563642    8.663528    9.101322
 O    1.422451    2.179020    8.944375
 H    1.571822    1.899601    8.041536
 H    2.197832    2.759328    9.008052
 O    5.540536    6.398219    21.852579
 H    4.612819    6.038747    21.759310
 H    6.019321    5.649932    21.462855
 O    6.387279    9.546158    16.867805
 H    6.421529    0.115939    17.444597
 H    6.928124    9.859622    16.037890
 O    5.195888    1.377773    18.664765
 H    5.064716    1.650955    19.656911
 H    5.898577    1.930375    18.284024
 O    1.103159    10.046209    10.495611
 H    0.367549    9.634185    10.050400
 H    1.269399    0.642265    9.945241
 O    2.145894    3.444739    20.403861
 H    2.367957    4.325119    20.825556
 H    2.410080    3.395255    19.416735
 O    7.099783    5.800939    9.181117
 H    6.353949    6.383599    9.004353
 H    7.669765    6.211121    9.864125
 O    0.609856    6.739697    10.058591
 H    0.072385    7.576319    9.728052
 H    1.561905    7.022899    10.123854
 O    0.483386    1.624680    12.637114
 H    0.752581    0.902770    11.950406
 H    1.380022    2.079132    12.842677
 O    5.581431    2.512114    14.858940
 H    5.128819    1.643696    14.829083
 H    4.874449    3.021571    15.408254
 O    8.938756    4.569572    14.536592
 H    8.897656    4.597483    13.563998
 H    9.291071    3.605867    14.682970
 O    5.037316    8.826906    19.838166
 H    5.074939    9.632038    19.304706
 H    4.194355    8.988035    20.278885
 O    6.552906    9.621406    21.880058
 H    5.942028    9.364070    21.186481
 H    7.049277    0.216133    21.710165
 O    3.043655    2.470401    6.102425
 H    2.706675    2.928534    5.328789
 H    3.759839    3.062876    6.441948
 O    9.604536    2.075963    14.986294
 H    10.015537    1.690931    14.129429
 H    9.978220    1.589919    15.778954
 O    5.884570    2.043758    8.776067
 H    6.768937    2.376852    8.540383
 H    5.691645    1.500357    7.979708
 O    5.375215    4.011961    6.115108
 H    6.226355    3.453940    5.967409
 H    5.769245    4.872302    6.380385
 O    7.672219    7.390653    18.022182
 H    7.116448    6.555769    18.082953
 H    7.050197    8.164295    17.705646
 O    8.440034    0.847970    18.545866
 H    9.108268    0.051120    18.477169
 H    8.969632    1.719456    18.319165
 O    6.480521    9.917490    9.952111
 H    6.177485    0.668745    9.622364
 H    6.206112    9.895611    10.912022
 O    2.873120    6.023002    6.842770
 H    2.527553    5.730394    5.980884
 H    1.948062    5.976279    7.315459
 O    3.378386    6.265410    18.540582
 H    3.594008    7.119004    18.096956
 H    2.543093    6.042529    18.029052
 O    5.192514    6.668232    12.814934
 H    5.844901    6.125343    13.372174
 H    4.947652    6.095898    12.023595
 O    6.792555    0.372354    6.607350
 H    6.055923    0.130968    6.021838
 H    7.404557    9.757792    6.547107
 O    2.062774    9.749307    15.153810
 H    1.581433    8.952251    15.026984
 H    2.586136    10.121559    14.355337
 O    9.623348    7.550043    16.311357
 H    8.800324    7.418564    16.842440
 H    9.311417    7.625087    15.372584
 O    0.630610    9.160001    20.949211
 H    0.506799    10.170327    21.240646
 H    9.989057    8.777014    21.197578
 O    3.397197    6.158775    15.015094
 H    3.952049    6.121969    14.192842
 H    3.803189    7.019321    15.511299
 O    3.285553    8.635924    7.000773
 H    2.474593    9.211938    6.880553
 H    3.016971    7.684692    6.894292
 O    4.345669    4.486861    11.499911
 H    4.942540    3.749411    11.639155
 H    4.000714    4.278804    10.632213
 O    8.877821    8.736732    6.945023
 H    8.823737    7.849297    6.506418
 H    9.706468    9.133623    6.562696
 O    0.034659    2.482976    6.203357
 H    0.393007    3.280236    6.593082
 H    0.331459    2.635108    5.233670
 O    0.262856    9.275429    18.363026
 H    0.306717    9.125137    19.379216
 H    10.083117    8.538183    17.829301
 O    9.282381    5.590633    20.752103
 H    8.925465    6.524075    20.667553
 H    9.828951    5.565789    21.611082
 O    3.953991    1.753092    21.266539
 H    4.589509    2.246089    21.858392
 H    3.275840    2.456496    20.848808
