274
traj_2000
Cu    9.658109    0.141703    25.863703
Cu    1.888866    2.678355    26.017215
Cu    9.430934    0.050199    3.027961
Cu    1.813515    2.556588    3.050684
Cu    1.874348    0.099274    26.007703
Cu    9.611182    2.720682    25.807689
Cu    1.833350    0.090277    3.140519
Cu    9.447088    2.680604    3.074728
Cu    3.047029    1.228708    24.259624
Cu    0.635518    4.073713    24.114303
Cu    3.175850    1.416521    1.392439
Cu    0.552091    4.045802    1.289129
Cu    0.595031    1.381556    24.132534
Ag    3.152642    3.889683    23.907154
Cu    0.525611    1.398527    1.382399
Cu    3.191390    3.909210    1.218054
Cu    4.406910    0.061037    25.903072
Cu    7.026171    2.573253    25.806632
Cu    4.332889    0.038646    3.297201
Cu    6.992943    2.598404    3.104321
Cu    6.998157    10.134134    25.911791
Cu    4.485020    2.581739    25.855248
Cu    6.965236    0.023617    2.964020
Cu    4.309476    2.627440    3.249906
Cu    8.187606    1.334321    24.122758
Cu    5.806153    3.772619    23.926706
Cu    8.184027    1.309886    1.272748
Cu    5.760554    3.975666    1.313702
Cu    5.612512    1.214599    24.080747
Cu    8.270522    3.953378    24.207836
Cu    5.609138    1.297208    1.292036
Cu    8.248131    3.926489    1.262707
Cu    9.471421    5.385133    25.726309
Cu    1.906348    7.851137    25.889597
Cu    9.564152    5.264491    3.022413
Cu    1.844494    7.825680    3.117532
Cu    1.867191    5.357017    25.823277
Cu    9.521007    7.817398    25.919189
Cu    1.882731    5.125548    3.063631
Cu    9.457823    7.823328    3.157165
Cu    3.079030    6.655554    24.135440
Cu    0.570494    9.030260    24.186963
Cu    3.148859    6.405171    1.594039
Cu    0.571720    9.039768    1.256102
Cu    0.578571    6.650647    23.998310
Cu    3.137204    9.029544    23.953393
Cu    0.615683    6.614045    1.327441
Cu    3.186381    8.978936    1.408821
Cu    4.440955    5.109394    25.927909
Cu    7.141190    7.714342    25.737670
Ag    4.604742    5.193537    3.543983
Cu    6.969530    7.616908    2.857539
Cu    7.041404    5.153357    25.856833
Cu    4.373580    7.779672    25.913377
Cu    7.137100    5.209793    3.189928
Cu    4.483794    7.837540    3.062574
Cu    8.283710    6.543296    23.981928
Cu    5.809424    9.013186    24.076255
Cu    8.392288    6.538695    1.128219
Cu    5.649523    9.054286    1.203522
Cu    5.601164    6.426028    24.159484
Cu    8.297819    9.032611    24.017862
Cu    5.800530    6.499333    1.141430
Cu    8.260809    8.973210    1.347258
 O    6.579284    7.452201    6.186183
 H    6.551577    8.028317    5.398807
 H    5.918513    7.848888    6.844355
 O    8.953887    6.536344    6.216832
 H    7.987422    6.913708    6.197280
 H    9.037519    6.165318    5.275417
 O    1.790921    1.202024    16.497368
 H    1.569062    0.317657    16.959225
 H    2.339740    1.018812    15.689119
 O    4.737244    0.172068    5.371857
 H    4.023923    9.882422    5.952348
 H    4.533277    1.113076    5.594066
 O    1.120233    1.121255    5.917735
 H    0.793170    2.051323    6.160025
 H    1.205091    1.092628    4.918455
 O    6.322051    3.208873    12.559433
 H    6.534810    3.335343    13.504284
 H    7.239748    3.196911    12.067720
 O    0.981494    5.135772    16.867276
 H    0.653614    4.694917    15.943563
 H    0.457826    6.016254    16.747849
 O    8.201408    1.719149    20.885798
 H    8.290561    1.344443    19.971861
 H    7.407931    2.270013    21.065996
 O    6.180859    4.268785    20.955817
 H    7.148449    4.503423    20.994129
 H    5.883752    4.691850    20.088118
 O    2.002964    7.791532    13.859132
 H    2.814026    7.265001    14.330764
 H    2.336979    7.745933    12.935683
 O    7.076268    3.914118    17.332039
 H    7.052957    3.178713    16.562895
 H    7.986195    3.972087    17.723085
 O    0.640527    1.706676    21.622972
 H    9.855328    1.807688    21.438282
 H    1.130048    2.526837    21.262576
 O    5.237397    5.578160    18.881954
 H    4.400060    5.938041    18.581800
 H    5.427562    4.891216    18.248883
 O    8.305487    3.805540    8.890210
 H    7.942437    4.607196    9.331194
 H    9.147835    4.001021    8.437073
 O    7.608217    5.199467    14.540291
 H    7.629994    5.157651    15.503637
 H    8.512317    4.830077    14.275014
 O    8.993454    3.035783    11.382333
 H    8.874652    2.962580    10.379618
 H    9.547487    2.261015    11.565966
 O    4.404967    9.219095    16.563423
 H    4.007155    9.633163    15.729281
 H    5.315303    9.551576    16.749170
 O    4.196911    5.594927    9.232639
 H    4.509353    5.104384    8.478027
 H    4.164194    6.481441    8.908442
 O    7.612614    2.794396    5.492077
 H    7.676615    1.925672    5.911130
 H    8.455268    3.283814    5.646646
 O    4.382066    0.892546    11.962032
 H    4.945403    1.663531    12.229423
 H    5.066351    0.192823    11.799008
 O    3.178202    8.293832    11.196851
 H    3.963908    8.129125    10.614246
 H    2.792863    9.038541    10.718349
 O    3.469072    9.576727    21.873981
 H    3.745015    0.293324    21.691141
 H    2.595439    9.533582    21.471574
 O    9.432161    7.193332    20.228155
 H    8.776094    7.179529    19.422284
 H    8.965645    7.826293    20.831369
 O    2.375728    3.340046    13.460424
 H    3.039770    3.771290    12.851397
 H    2.833861    3.435946    14.302493
 O    9.521109    5.624474    11.980792
 H    9.435228    4.692054    11.699926
 H    10.076165    6.007870    11.211911
 O    3.900520    3.744810    15.852143
 H    3.897555    4.677025    15.589773
 H    3.564154    3.690010    16.794616
 O    2.333094    6.252324    20.991486
 H    1.831714    6.623349    21.751383
 H    2.054799    6.839994    20.272015
 O    9.821998    3.540434    18.578101
 H    0.306001    4.099579    18.114395
 H    9.955625    3.733257    19.554658
 O    6.669970    9.059602    12.199302
 H    7.210405    9.470194    12.895521
 H    6.329003    8.257231    12.585063
 O    3.072077    2.705755    18.142666
 H    2.701870    1.992638    17.597845
 H    3.937224    2.260095    18.356156
 O    0.681014    5.800223    7.660795
 H    0.834066    5.910641    8.586886
 H    10.169611    6.354358    7.299078
 O    7.962987    9.642569    14.557729
 H    8.469888    0.223290    14.772012
 H    8.605150    8.911867    14.336313
 O    9.723338    9.074120    8.989029
 H    9.839175    9.085060    7.997411
 H    8.705549    9.244655    9.172662
 O    9.571104    7.472137    13.783565
 H    0.343319    7.411203    13.954515
 H    9.376236    6.644615    13.284189
 O    5.073713    8.279825    8.269029
 H    4.650239    9.148039    8.106005
 H    5.940802    8.484406    8.808302
 O    3.519987    1.838155    9.101058
 H    4.436764    2.048256    9.389058
 H    3.439729    2.280543    8.248684
 O    5.309476    6.534606    22.037005
 H    4.348327    6.391676    21.845710
 H    5.780900    5.813105    21.440132
 O    6.891113    9.839890    17.147878
 H    7.429810    0.357428    17.489250
 H    7.285347    9.667924    16.222580
 O    5.160002    1.526019    18.852625
 H    5.023104    1.604130    19.912412
 H    5.810447    2.173090    18.562248
 O    1.709027    0.168592    10.134158
 H    1.080462    9.998259    9.478364
 H    2.325631    0.798589    9.652221
 O    2.058685    3.483692    20.485505
 H    2.059093    4.460688    20.646679
 H    2.438196    3.184643    19.555715
 O    7.282177    6.122378    9.716691
 H    6.291072    6.194150    9.610210
 H    7.461811    6.513033    10.641461
 O    0.886208    6.827214    10.105094
 H    0.426234    7.640525    9.811281
 H    1.804825    7.185766    10.330738
 O    0.779266    1.245680    12.489679
 H    1.201513    0.863613    11.637834
 H    1.442592    1.813311    12.893143
 O    6.128410    2.469174    15.218808
 H    6.190162    1.478580    15.202690
 H    5.150290    2.643492    15.454492
 O    10.083117    3.994682    14.486390
 H    0.734383    3.963806    13.919110
 H    9.934257    3.002248    14.634882
 O    6.104179    8.874652    20.472822
 H    5.732847    9.633572    19.982166
 H    5.377465    8.412838    20.937321
 O    8.291276    9.248540    21.749534
 H    7.415906    8.951842    21.339200
 H    8.328900    0.016358    21.579904
 O    3.713832    2.834167    6.297419
 H    2.931090    3.189755    5.827901
 H    4.350781    3.608934    6.358719
 O    9.742252    1.281566    14.871887
 H    0.031592    1.147122    14.045671
 H    0.178918    1.147122    15.589244
 O    6.671095    1.728861    8.939884
 H    7.247212    2.490849    9.098944
 H    7.012675    1.347101    8.087246
 O    5.794395    4.419281    6.529933
 H    6.523462    3.793987    6.188825
 H    6.069112    5.293220    6.200451
 O    7.453939    7.220016    18.135797
 H    6.639605    6.649420    18.274248
 H    7.146404    8.150698    17.960619
 O    8.961964    0.889990    18.507818
 H    9.802369    0.299765    18.492494
 H    9.399445    1.763725    18.475055
 O    7.188117    9.470399    9.660676
 H    6.875164    0.206216    9.606511
 H    7.193229    9.235147    10.628514
 O    2.756057    6.852364    6.254616
 H    2.657498    6.736221    5.282022
 H    2.063183    6.293015    6.706696
 O    2.833963    6.828645    18.259980
 H    3.050710    7.633982    17.746072
 H    2.177486    6.305590    17.764567
 O    5.764337    6.640014    13.123807
 H    6.471831    6.056638    13.522251
 H    5.183517    5.929146    12.715059
 O    7.291072    0.375115    6.486865
 H    6.454655    0.187404    5.976921
 H    8.023512    10.011345    6.110088
 O    3.162559    10.089353    14.427733
 H    2.523156    9.339737    14.176196
 H    3.419895    0.276250    13.527007
 O    9.724156    7.408749    16.472796
 H    8.901336    7.417951    17.136252
 H    9.437887    7.268171    15.469024
 O    1.221245    9.615987    20.490261
 H    1.051937    0.348737    20.835861
 H    0.455270    9.070133    20.798606
 O    4.226151    6.642775    15.227791
 H    4.729883    6.881605    14.426940
 H    4.330844    7.481032    15.810661
 O    2.823534    9.518246    7.214263
 H    2.034352    10.056739    6.882931
 H    2.750331    8.640525    6.800759
 O    4.330640    4.780696    11.912623
 H    5.161740    4.200592    12.045526
 H    4.472752    4.918207    10.913079
 O    9.569775    9.125240    6.088686
 H    9.766892    8.164295    5.864363
 H    0.101728    9.619054    5.760260
 O    0.235252    3.756465    5.935702
 H    0.251917    4.618033    6.406542
 H    0.295164    3.945607    4.990852
 O    0.936611    9.414167    17.869991
 H    1.195481    9.363968    18.800310
 H    0.458542    8.593597    17.579878
 O    9.062669    4.614251    21.102195
 H    9.318778    5.599630    20.938114
 H    9.373680    4.431652    22.063427
 O    4.198342    1.932726    21.420051
 H    4.609343    2.262140    22.241775
 H    3.451793    2.575605    21.090040
