 DBCSR| CPU Multiplication driver                                           XSMM (U)
 DBCSR| Multrec recursion limit                                              512 (U)
 DBCSR| Multiplication stack size                                           1000 (D)
 DBCSR| Maximum elements for images                                    UNLIMITED (U)
 DBCSR| Multiplicative factor virtual images                                   1 (U)
 DBCSR| Use multiplication densification                                       T (D)
 DBCSR| Multiplication size stacks                                             3 (U)
 DBCSR| Use memory pool for CPU allocation                                     F (U)
 DBCSR| Number of 3D layers                                               SINGLE (U)
 DBCSR| Use MPI memory allocation                                              F (U)
 DBCSR| Use RMA algorithm                                                      F (U)
 DBCSR| Use Communication thread                                               T (U)
 DBCSR| Communication thread load                                             87 (D)
 DBCSR| MPI: My process id                                                     0
 DBCSR| MPI: Number of processes                                              48
 DBCSR| OMP: Current number of threads                                         1
 DBCSR| OMP: Max number of threads                                             1
 DBCSR| Split modifier for TAS multiplication algorithm                  1.0E+00 (U)


  **** **** ******  **  PROGRAM STARTED AT               2026-04-03 16:11:17.935
 ***** ** ***  *** **   PROGRAM STARTED ON                                node41
 **    ****   ******    PROGRAM STARTED BY                                shaofl
 ***** **    ** ** **   PROGRAM PROCESS ID                                 93616
  **** **  *******  **  PROGRAM STARTED IN /share/home/chem-wangyg/shaofl/projec
                                           ts/03_CuAg_SAA/small/explicit/potenti
                                           al/potential/pzc/potential_t2000_i200
                                           0

 CP2K| version string:                                       CP2K version 2023.2
 CP2K| source code revision number:                                  git:65cca6c
 CP2K| cp2kflags: omp libint fftw3 libxc elpa parallel mpi_f08 scalapack xsmm pl
 CP2K|            umed2 spglib mkl libvori libbqb
 CP2K| is freely available from                            https://www.cp2k.org/
 CP2K| Program compiled at                          Fri May 17 19:19:49 CST 2024
 CP2K| Program compiled on                                                node23
 CP2K| Program compiled for                                                local
 CP2K| Data directory path    /share/apps/cp2k/cp2k-2023.2-intel/cp2k-2023.2/dat
 CP2K| Input file name                                                    sp.inp
 
 GLOBAL| Force Environment number                                              1
 GLOBAL| Basis set file name                                        BASIS_MOLOPT
 GLOBAL| Potential file name                                      GTH_POTENTIALS
 GLOBAL| MM Potential file name                                     MM_POTENTIAL
 GLOBAL| Coordinate file name                                           init.xyz
 GLOBAL| Method name                                                        CP2K
 GLOBAL| Project name                                               sp_potential
 GLOBAL| Run type                                                   ENERGY_FORCE
 GLOBAL| FFT library                                                       FFTW3
 GLOBAL| Diagonalization library                                            ELPA
 GLOBAL| DGEMM library                                                      BLAS
 GLOBAL| Minimum number of eigenvectors for ELPA usage                        16
 GLOBAL| Orthonormality check for eigenvectors                          DISABLED
 GLOBAL| Matrix multiplication library                                 ScaLAPACK
 GLOBAL| All-to-all communication in single precision                          F
 GLOBAL| FFTs using library dependent lengths                                  F
 GLOBAL| Grid backend                                                       AUTO
 GLOBAL| Global print level                                                  LOW
 GLOBAL| MPI I/O enabled                                                       T
 GLOBAL| Total number of message passing processes                            48
 GLOBAL| Number of threads for this process                                    1
 GLOBAL| This output is from process                                           0
 GLOBAL| Stack size for threads created by OpenMP (OMP_STACKSIZE)         65535M
 GLOBAL| CPU model name             Intel(R) Xeon(R) Platinum 9242 CPU @ 2.30GHz
 GLOBAL| CPUID                                                              1003

 MEMORY| system memory details [Kb]
 MEMORY|                        rank 0           min           max       average
 MEMORY| MemTotal            394659324     394659324     394659324     394659324
 MEMORY| MemFree             350130972     350130972     350131096     350130977
 MEMORY| Buffers                  2112          2112          2112          2112
 MEMORY| Cached               13550404      13550404      13550404      13550404
 MEMORY| Slab                  1037252       1037252       1037252       1037252
 MEMORY| SReclaimable           421240        421240        421240        421240
 MEMORY| MemLikelyFree       364104728     364104728     364104852     364104733

 
 GENERATE|  Preliminary Number of Bonds generated:                             0
 GENERATE|  Achieved consistency in connectivity generation.

 *******************************************************************************
 *******************************************************************************
 **                                                                           **
 **     #####                         ##              ##                      **
 **    ##   ##            ##          ##              ##                      **
 **   ##     ##                       ##            ######                    **
 **   ##     ##  ##   ##  ##   #####  ##  ##   ####   ##    #####    #####    **
 **   ##     ##  ##   ##  ##  ##      ## ##   ##      ##   ##   ##  ##   ##   **
 **   ##  ## ##  ##   ##  ##  ##      ####     ###    ##   ######   ######    **
 **    ##  ###   ##   ##  ##  ##      ## ##      ##   ##   ##       ##        **
 **     #######   #####   ##   #####  ##  ##  ####    ##    #####   ##        **
 **           ##                                                    ##        **
 **                                                                           **
 **                                                ... make the atoms dance   **
 **                                                                           **
 **            Copyright (C) by CP2K developers group (2000-2023)             **
 **                      J. Chem. Phys. 152, 194103 (2020)                    **
 **                                                                           **
 *******************************************************************************


 TOTAL NUMBERS AND MAXIMUM NUMBERS

  Total number of            - Atomic kinds:                                   4
                             - Atoms:                                        274
                             - Shell sets:                                   274
                             - Shells:                                      1218
                             - Primitive Cartesian functions:               1432
                             - Cartesian basis functions:                   3600
                             - Spherical basis functions:                   3210

  Maximum angular momentum of- Orbital basis functions:                        3
                             - Local part of the GTH pseudopotential:          2
                             - Non-local part of the GTH pseudopotential:      4


 SCF PARAMETERS         Density guess:                                    ATOMIC
                        --------------------------------------------------------
                        max_scf:                                              60
                        max_scf_history:                                       0
                        max_diis:                                              4
                        --------------------------------------------------------
                        eps_scf:                                        1.00E-05
                        eps_scf_history:                                0.00E+00
                        eps_diis:                                       1.00E-01
                        eps_eigval:                                     1.00E-05
                        --------------------------------------------------------
                        level_shift [a.u.]:                             0.000000
                        added MOs                                       500  500
                        --------------------------------------------------------
                        Mixing method:                            BROYDEN_MIXING
                                                charge density mixing in g-space
                        --------------------------------------------------------
                        Smear method:                                FERMI_DIRAC
                        Electronic temperature [K]:                        300.0
                        Electronic temperature [a.u.]:                  9.50E-04
                        Accuracy threshold:                             1.00E-10
                        --------------------------------------------------------
                        Outer loop SCF in use 
                        No variables optimised in outer loop
                        eps_scf                                         1.00E-05
                        max_scf                                               50
                        No outer loop optimization
                        step_size                                       5.00E-01

 Spin 1

 Number of electrons:                                                        632
 Number of occupied orbitals:                                                632
 Number of molecular orbitals:                                              1132

 Spin 2

 Number of electrons:                                                        632
 Number of occupied orbitals:                                                632
 Number of molecular orbitals:                                              1132

 Number of orbital functions:                                               3210
 Number of independent orbital functions:                                   3210

 Extrapolation method: initial_guess


 SCF WAVEFUNCTION OPTIMIZATION

  Step     Update method      Time    Convergence         Total energy    Change
  ------------------------------------------------------------------------------
     1 NoMix/Diag. 0.30E+00    4.5     0.37090764     -4242.1336472859 -4.24E+03
     2 Broy./Diag. 0.30E+00    6.7     0.09459127     -4239.1178601528  3.02E+00
     3 Broy./Diag. 0.30E+00    7.4     0.05856666     -4237.2234507848  1.89E+00
     4 Broy./Diag. 0.30E+00    6.7     0.02692519     -4255.1121275681 -1.79E+01
     5 Broy./Diag. 0.30E+00    6.7     0.01130961     -4263.7341427914 -8.62E+00
     6 Broy./Diag. 0.30E+00    8.2     0.00396160     -4261.7329909932  2.00E+00
     7 Broy./Diag. 0.30E+00    6.8     0.00259267     -4258.6083158775  3.12E+00
     8 Broy./Diag. 0.30E+00    6.7     0.00283081     -4258.2685881204  3.40E-01
     9 Broy./Diag. 0.30E+00    6.7     0.00119036     -4259.1268143519 -8.58E-01
    10 Broy./Diag. 0.30E+00    6.7     0.00141905     -4259.3925759910 -2.66E-01
    11 Broy./Diag. 0.30E+00    6.7     0.00053702     -4259.2260413664  1.67E-01
    12 Broy./Diag. 0.30E+00    6.7     0.00070954     -4259.2005150683  2.55E-02
    13 Broy./Diag. 0.30E+00    6.8     0.00042847     -4259.2390299707 -3.85E-02
    14 Broy./Diag. 0.30E+00    6.8     0.00019274     -4259.2087000806  3.03E-02
    15 Broy./Diag. 0.30E+00    6.6     0.00025348     -4259.2001267060  8.57E-03
    16 Broy./Diag. 0.30E+00    6.8     0.00008240     -4259.2007751863 -6.48E-04
    17 Broy./Diag. 0.30E+00    7.3     0.00014220     -4259.2015037751 -7.29E-04
    18 Broy./Diag. 0.30E+00    7.4     0.00004733     -4259.1997356567  1.77E-03
    19 Broy./Diag. 0.30E+00    6.7     0.00005171     -4259.1961918375  3.54E-03
    20 Broy./Diag. 0.30E+00    7.8     0.00002274     -4259.1965550899 -3.63E-04
    21 Broy./Diag. 0.30E+00    6.9     0.00001506     -4259.1975469323 -9.92E-04
    22 Broy./Diag. 0.30E+00    6.9     0.00001450     -4259.1981526445 -6.06E-04
    23 Broy./Diag. 0.30E+00    6.8     0.00000502     -4259.1982585594 -1.06E-04

  *** SCF run converged in    23 steps ***


  Electronic density on regular grids:      -1264.0000000000       -0.0000000000
  Core density on regular grids:             1263.9999999989       -0.0000000011
  Total charge density on r-space grids:       -0.0000000012
  Total charge density g-space grids:          -0.0000000012

  Overlap energy of the core charge distribution:               0.00000400061593
  Self energy of the core charge distribution:              -7217.03934990029848
  Core Hamiltonian energy:                                   2291.03700026913248
  Hartree energy:                                            1450.50425970691504
  Exchange-correlation energy:                               -782.44872047141916
  Dispersion energy:                                           -1.25120368853454
  Electronic entropic energy:                                  -0.00024847284426
  Fermi energy:                                                 0.07256253904094

  Total energy:                                             -4259.19825855941326

  outer SCF iter =    1 RMS gradient =   0.50E-05 energy =      -4259.1982585594
  outer SCF loop converged in   1 iterations or   23 steps


  Integrated absolute spin density  :                               0.0000000000
  WARNING: S**2 computation does not yet treat fractional occupied orbitals

 ENERGY| Total FORCE_EVAL ( QS ) energy [a.u.]:            -4259.197806485412912

 -------------------------------------------------------------------------------
 -                                                                             -
 -                                DBCSR STATISTICS                             -
 -                                                                             -
 -------------------------------------------------------------------------------
 COUNTER                                    TOTAL       BLAS       SMM       ACC
 flops     5 x     5 x    76           1761984000       0.0%    100.0%      0.0%
 flops    13 x     5 x    76           1988014080       0.0%    100.0%      0.0%
 flops     5 x    13 x    76           1993230720       0.0%    100.0%      0.0%
 flops    13 x    13 x    76           2298356736       0.0%    100.0%      0.0%
 flops    25 x     5 x    76           4085760000       0.0%    100.0%      0.0%
 flops     5 x    25 x    76           4085760000       0.0%    100.0%      0.0%
 flops    25 x    13 x    76           5192928000       0.0%    100.0%      0.0%
 flops    13 x    25 x    76           5223753600       0.0%    100.0%      0.0%
 flops    25 x    25 x    76           9484800000       0.0%    100.0%      0.0%
 flops     5 x     5 x    96          24482304000       0.0%    100.0%      0.0%
 flops    13 x     5 x    96          27622932480       0.0%    100.0%      0.0%
 flops     5 x    13 x    96          27695416320       0.0%    100.0%      0.0%
 flops    13 x    13 x    96          31935062016       0.0%    100.0%      0.0%
 flops    25 x     5 x    96          56770560000       0.0%    100.0%      0.0%
 flops     5 x    25 x    96          56770560000       0.0%    100.0%      0.0%
 flops    25 x    13 x    96          72154368000       0.0%    100.0%      0.0%
 flops    13 x    25 x    96          72582681600       0.0%    100.0%      0.0%
 flops    25 x    25 x    96         131788800000       0.0%    100.0%      0.0%
 flops inhomo. stacks                           0       0.0%      0.0%      0.0%
 flops total                       537.917272E+09       0.0%    100.0%      0.0%
 flops max/rank                     12.045530E+09       0.0%    100.0%      0.0%
 matmuls inhomo. stacks                         0       0.0%      0.0%      0.0%
 matmuls total                           20362752       0.0%    100.0%      0.0%
 number of processed stacks                248832       0.0%    100.0%      0.0%
 average stack size                                     0.0      81.8       0.0
 marketing flops                   633.784631E+09
 -------------------------------------------------------------------------------
 # multiplications                             48
 max memory usage/rank               1.342906E+09
 # max total images/rank                        3
 # max 3D layers                                1
 # MPI messages exchanged                   46080
 MPI messages size (bytes):
  total size                        19.534877E+09
  min size                         161.120000E+03
  max size                         617.472000E+03
  average size                     423.933969E+03
 MPI breakdown and total messages size (bytes):
             size <=      128                   0                        0
       128 < size <=     8192                   0                        0
      8192 < size <=    32768                   0                        0
     32768 < size <=   131072                   0                        0
    131072 < size <=  4194304               46080              19534878720
   4194304 < size <= 16777216                   0                        0
  16777216 < size                               0                        0
 -------------------------------------------------------------------------------

 *** WARNING in dbcsr_mm.F:291 :: Using a non-square number of MPI ranks ***
 *** might lead to poor performance. Used ranks: 48 Suggested: 49 100    ***

 -------------------------------------------------------------------------------
 -                                                                             -
 -                      DBCSR MESSAGE PASSING PERFORMANCE                      -
 -                                                                             -
 -------------------------------------------------------------------------------
 ROUTINE             CALLS      AVE VOLUME [Bytes]
 MP_Bcast               19                     12.
 MP_Allreduce          393                     10.
 MP_Alltoall          1332                 432750.
 MP_ISend             2304                 189276.
 MP_IRecv             2304                 185702.
 -------------------------------------------------------------------------------

 -------------------------------------------------------------------------------
 -                                                                             -
 -                                DBM STATISTICS                               -
 -                                                                             -
 -------------------------------------------------------------------------------
    M  x    N  x    K                                          COUNT     PERCENT
 -------------------------------------------------------------------------------

 -------------------------------------------------------------------------------
 -                                                                             -
 -                                GRID STATISTICS                              -
 -                                                                             -
 -------------------------------------------------------------------------------
 LP    KERNEL             BACKEND                              COUNT     PERCENT
 2     collocate ortho    CPU                                8465088      13.41%
 4     collocate ortho    CPU                                8410080      13.32%
 4     integrate ortho    CPU                                8306088      13.16%
 2     integrate ortho    CPU                                8112376      12.85%
 6     collocate ortho    CPU                                6293424       9.97%
 6     integrate ortho    CPU                                6133962       9.72%
 3     integrate ortho    CPU                                6020556       9.54%
 3     collocate ortho    CPU                                5914272       9.37%
 5     integrate ortho    CPU                                2713992       4.30%
 5     collocate ortho    CPU                                2466336       3.91%
 7     integrate ortho    CPU                                 262226       0.42%
 0     collocate general  CPU                                  13152       0.02%
 1     integrate general  CPU                                  13152       0.02%
 -------------------------------------------------------------------------------

 MEMORY| Estimated peak process memory [MiB]                                1538

 -------------------------------------------------------------------------------
 -                                                                             -
 -                         MESSAGE PASSING PERFORMANCE                         -
 -                                                                             -
 -------------------------------------------------------------------------------

 ROUTINE             CALLS      AVE VOLUME [Bytes]
 MP_Group                5
 MP_Bcast              208                4101203.
 MP_Allreduce          986                   1073.
 MP_Sync                51
 MP_Alltoall           711                4002511.
 MP_SendRecv          7724                  57006.
 MP_ISendRecv         6768                  20800.
 MP_Wait             20048
 MP_ISend            11828                 116748.
 MP_IRecv            11828                 116748.
 MP_Write_All            1                  80580.
 -------------------------------------------------------------------------------


 -------------------------------------------------------------------------------
 -                                                                             -
 -                           R E F E R E N C E S                               -
 -                                                                             -
 -------------------------------------------------------------------------------
 
 CP2K version 2023.2, the CP2K developers group (2023).
 CP2K is freely available from https://www.cp2k.org/ .

 Kuehne,Thomas D.; Iannuzzi,Marcella; Del Ben,Mauro;
 Rybkin,Vladimir V.; Seewald,Patrick; Stein,Frederick; Laino,Teodoro;
 Khaliullin,Rustam Z.; Schuett,Ole; Schiffmann,Florian; Golze,Dorothea;
 Wilhelm,Jan; Chulkov,Sergey; Bani-Hashemian,Mohammad Hossein;
 Weber,Valery; Borstnik,Urban; Taillefumier,Mathieu;
 Jakobovits,Alice Shoshana; Lazzaro,Alfio; Pabst,Hans; Mueller,Tiziano;
 Schade,Robert; Guidon,Manuel; Andermatt,Samuel; Holmberg,Nico;
 Schenter,Gregory K.; Hehn,Anna; Bussy,Augustin; Belleflamme,Fabian;
 Tabacchi,Gloria; Gloess,Andreas; Lass,Michael; Bethune,Iain;
 Mundy,Christopher J.; Plessl,Christian; Watkins,Matt;
 VandeVondele,Joost; Krack,Matthias; Hutter,Juerg. 
 The Journal of Chemical Physics, 152 (19), (2020). 
 CP2K: An electronic structure and molecular dynamics software package -
 Quickstep: Efficient and accurate electronic structure calculations.
 https://doi.org/10.1063/5.0007045

 Goerigk, Lars; Hansen, Andreas; Bauer, Christoph; Ehrlich, Stephan;
 Najibi, Asim; Grimme, Stefan. , 19 (48), (2017). 
 A look at the density functional theory zoo with the advanced GMTKN55 database
 for general main group thermochemistry, kinetics and noncovalent interactions.
 https://doi.org/10.1039/C7CP04913G

 Schuett, Ole; Messmer, Peter; Hutter, Juerg; VandeVondele, Joost. 
 Electronic Structure Calculations on Graphics Processing Units, John
 Wiley & Sons, Ltd, 173-190 (2016). 
 GPU-Accelerated Sparse Matrix-Matrix Multiplication for
 Linear Scaling Density Functional Theory.
 https://doi.org/10.1002/9781118670712.ch8

 Heinecke, A; Henry, G; Hutchinson, M; Pabst, H. 
 Proceedings of Intl. Supercomputing Conference, 981-991 (2016). 
 LIBXSMM: Accelerating Small Matrix Multiplications
 by Runtime Code Generation.
 https://doi.org/10.1109/SC.2016.83

 Borstnik, U; VandeVondele, J; Weber, V; Hutter, J. 
 PARALLEL COMPUTING, 40 (5-6), 47-58 (2014). 
 Sparse matrix multiplication: The distributed block-compressed sparse
 row library.
 https://doi.org/10.1016/j.parco.2014.03.012

 Hutter, J; Iannuzzi, M; Schiffmann, F; VandeVondele, J. 
 WIREs Comput Mol Sci., 4 (1), 15-25 (2014). 
 CP2K: atomistic simulations of condensed matter systems.
 https://doi.org/10.1002/wcms.1159

 Marek, A; Blum, V; Johanni, R; Havu, V; Lang, B; Auckenthaler, T;
 Heinecke, A; Bungartz, H; Lederer, H. 
 Journal of Physics: Condensed Matter, 26 (21), (2014). 
 The ELPA library: scalable parallel eigenvalue solutions for
 electronic structure
 theory and computational science.
 https://doi.org/10.1088/0953-8984/26/21/213201

 Grimme, S; Ehrlich, S; Goerigk, L. 
 JOURNAL OF COMPUTATIONAL CHEMISTRY, 32, 1456 (2011). 
 Effect of the damping function in dispersion corrected density functional theory.
 https://doi.org/10.1002/jcc.21759

 Grimme, S; Antony, J; Ehrlich, S; Krieg, H. 
 JOURNAL OF CHEMICAL PHYSICS, 132 (15), 154104 (2010). 
 A consistent and accurate ab initio parametrization of density
 functional dispersion correction (DFT-D) for the 94 elements H-Pu.
 https://doi.org/10.1063/1.3382344

 VandeVondele, J; Hutter, J. 
 JOURNAL OF CHEMICAL PHYSICS, 127 (11), 114105 (2007). 
 Gaussian basis sets for accurate calculations on molecular systems in
 gas and condensed phases.
 https://doi.org/10.1063/1.2770708

 Krack, M. 
 THEORETICAL CHEMISTRY ACCOUNTS, 114 (1-3), 145-152 (2005). 
 Pseudopotentials for H to Kr optimized for gradient-corrected
 exchange-correlation functionals.
 https://doi.org/10.1007/s00214-005-0655-y

 VandeVondele, J; Krack, M; Mohamed, F; Parrinello, M; Chassaing, T;
 Hutter, J. COMPUTER PHYSICS COMMUNICATIONS, 167 (2), 103-128 (2005). 
 QUICKSTEP: Fast and accurate density functional calculations using a
 mixed Gaussian and plane waves approach.
 https://doi.org/10.1016/j.cpc.2004.12.014

 Frigo, M; Johnson, SG. 
 PROCEEDINGS OF THE IEEE, 93 (2), 216-231 (2005). 
 The design and implementation of FFTW3.
 https://doi.org/10.1109/JPROC.2004.840301

 Hartwigsen, C; Goedecker, S; Hutter, J. 
 PHYSICAL REVIEW B, 58 (7), 3641-3662 (1998). 
 Relativistic separable dual-space Gaussian pseudopotentials from H to Rn.
 https://doi.org/10.1103/PhysRevB.58.3641

 Lippert, G; Hutter, J; Parrinello, M. 
 MOLECULAR PHYSICS, 92 (3), 477-487 (1997). 
 A hybrid Gaussian and plane wave density functional scheme.
 https://doi.org/10.1080/002689797170220

 Perdew, JP; Burke, K; Ernzerhof, M. 
 PHYSICAL REVIEW LETTERS, 77 (18), 3865-3868 (1996). 
 Generalized gradient approximation made simple.
 https://doi.org/10.1103/PhysRevLett.77.3865

 Goedecker, S; Teter, M; Hutter, J. 
 PHYSICAL REVIEW B, 54 (3), 1703-1710 (1996). 
 Separable dual-space Gaussian pseudopotentials.
 https://doi.org/10.1103/PhysRevB.54.1703


 -------------------------------------------------------------------------------
 -                                                                             -
 -                                T I M I N G                                  -
 -                                                                             -
 -------------------------------------------------------------------------------
 SUBROUTINE                       CALLS  ASD         SELF TIME        TOTAL TIME
                                MAXIMUM       AVERAGE  MAXIMUM  AVERAGE  MAXIMUM
 CP2K                                 1  1.0    0.017    0.031  176.179  176.180
 qs_forces                            1  2.0    0.002    0.002  175.831  175.831
 qs_energies                          1  3.0    0.001    0.003  164.847  164.848
 scf_env_do_scf                       1  4.0    0.000    0.000  159.819  160.018
 scf_env_do_scf_inner_loop           23  5.0    0.002    0.004  159.819  160.018
 rebuild_ks_matrix                   24  6.9    0.000    0.001   75.171   75.184
 qs_ks_build_kohn_sham_matrix        24  7.9    0.014    0.026   75.171   75.184
 qs_ks_update_qs_env                 23  6.0    0.000    0.000   69.766   69.779
 sum_up_and_integrate                24  8.9    0.049    0.065   68.489   68.497
 integrate_v_rspace                  48  9.9    0.003    0.015   68.438   68.455
 grid_integrate_task_list            48 10.9   43.649   63.368   43.649   63.368
 qs_rho_update_rho_low               24  6.0    0.002    0.005   57.040   57.049
 calculate_rho_elec                  48  7.0    0.039    0.047   57.039   57.049
 grid_collocate_task_list            48  8.0   36.220   53.210   36.220   53.210
 qs_scf_new_mos                      23  6.0    0.005    0.013   30.918   30.944
 eigensolver                         46  7.0    0.004    0.006   28.531   28.555
 mp_alltoall_d11v                   668 10.2   21.256   26.728   21.256   26.728
 rs_pw_transfer                     482 10.4    0.005    0.010   21.907   26.525
 rs_gather_matrices                  48 10.9    0.057    0.070   20.717   26.165
 density_rs2pw                       48  8.0    0.003    0.004   20.290   24.920
 mp_waitany                       11828 12.4   18.516   23.370   18.516   23.370
 rs_pw_transfer_RS2PW_230            49 10.0    0.395    0.447   18.367   22.987
 cp_fm_diag_elpa                     46  8.0    0.000    0.001   14.409   14.469
 cp_fm_diag_elpa_base                46  9.0   14.088   14.120   14.355   14.356
 cp_fm_triangular_multiply          138  8.0   13.834   13.964   13.834   13.964
 qs_vxc_create                       24  8.9    0.002    0.006    6.075    6.127
 xc_vxc_pw_create                    24  9.9    0.207    0.233    6.073    6.124
 build_core_hamiltonian_matrix_       1  3.0    0.000    0.000    5.045    5.542
 qs_ks_update_qs_env_forces           1  3.0    0.000    0.000    5.439    5.439
 pw_nn_compose_r                    384 12.8    3.211    3.411    3.933    4.614
 build_core_ppnl_forces               1  4.0    3.904    4.336    3.906    4.338
 gspace_mixing                       22  6.0    0.036    0.038    4.235    4.235
 potential_pw2rs                     48 10.9    0.006    0.009    4.060    4.082
 pw_transfer                        645 10.0    0.037    0.050    3.600    3.694
 xc_rho_set_and_dset_create          24 10.9    0.116    0.136    3.419    3.639
 fft_wrap_pw1pw2                    597 11.0    0.003    0.006    3.528    3.621
 -------------------------------------------------------------------------------

 The number of warnings for this run is : 1
 
 -------------------------------------------------------------------------------
  **** **** ******  **  PROGRAM ENDED AT                 2026-04-03 16:14:15.461
 ***** ** ***  *** **   PROGRAM RAN ON                                    node41
 **    ****   ******    PROGRAM RAN BY                                    shaofl
 ***** **    ** ** **   PROGRAM PROCESS ID                                 93616
  **** **  *******  **  PROGRAM STOPPED IN /share/home/chem-wangyg/shaofl/projec
                                           ts/03_CuAg_SAA/small/explicit/potenti
                                           al/potential/pzc/potential_t2000_i200
                                           0
