 # Version information for this restart file 
 # current date 2026-03-03 19:15:12.789
 # current working dir /home/shaofl/projects/03_CuAg_SAA/explicit/single-side/co2/2k/ad_stru/desorb
 # Program compiled at                              Wed Jun 16 17:08:34 CST 2021
 # Program compiled on                                                       mgr
 # Program compiled for                                       Linux-x86-64-intel
 # Source code revision number                                       git:e635599
 &GLOBAL
   PRINT_LEVEL  LOW
   PROJECT_NAME slowgrowth
   RUN_TYPE  MD
 &END GLOBAL
 &MOTION
   &MD
     ENSEMBLE  NVT
     STEPS  6000
     TIMESTEP     9.9999999999999989E-01
     STEP_START_VAL  4500
     TIME_START_VAL     4.4999999999996371E+03
     ECONS_START_VAL    -4.3015317591289058E+03
     TEMPERATURE     3.0014999999999998E+02
     &THERMOSTAT
       TYPE  NOSE
       REGION  GLOBAL
       &NOSE
         LENGTH  3
         TIMECON     2.2237606346543473E+01
         &COORD
               6.9079169011198344E-02    2.8551279312678144E+00    2.5475228125219356E+01
         &END COORD
         &VELOCITY
              -1.3569580761865255E-05   -1.5520459817523137E-03    3.5971349915165393E-04
         &END VELOCITY
         &MASS
               6.4750332819943212E+05    8.0335400521021347E+02    8.0335400521021347E+02
         &END MASS
         &FORCE
              -4.7013334489094306E-08   -1.0347773852297152E-06    1.2256577254692449E-06
         &END FORCE
       &END NOSE
     &END THERMOSTAT
     &AVERAGES  T
       &RESTART_AVERAGES
         ITIMES_START  1
         AVECPU     2.4594991674471231E+01
         AVEHUGONIOT     0.0000000000000000E+00
         AVETEMP_BARO     0.0000000000000000E+00
         AVEPOT    -4.3018575551886697E+03
         AVEKIN     3.8299506815397111E-01
         AVETEMP     3.0009958509896774E+02
         AVEKIN_QM     0.0000000000000000E+00
         AVETEMP_QM     0.0000000000000000E+00
         AVEVOL     1.8637835790266090E+04
         AVECELL_A     1.9320371010009630E+01
         AVECELL_B     1.9320371010009630E+01
         AVECELL_C     4.9930343883104655E+01
         AVEALPHA     9.0000000000000000E+01
         AVEBETA     9.0000000000000000E+01
         AVEGAMMA     9.0000000000000000E+01
         AVE_ECONS     9.6622727227104960E+01
         AVE_PRESS     0.0000000000000000E+00
         AVE_PXX     0.0000000000000000E+00
       &END RESTART_AVERAGES
     &END AVERAGES
     &PRINT
       &ENERGY  SILENT
       &END ENERGY
     &END PRINT
   &END MD
   &CONSTRAINT
     &COLLECTIVE
       COLVAR  1
       INTERMOLECULAR  T
       TARGET     2.9234963102605329E+00
       TARGET_GROWTH     4.2217495722394033E-06
     &END COLLECTIVE
     &LAGRANGE_MULTIPLIERS  SILENT
       COMMON_ITERATION_LEVELS  1
       FILENAME constraint_force.dat
     &END LAGRANGE_MULTIPLIERS
   &END CONSTRAINT
   &PRINT
     &TRAJECTORY  SILENT
       &EACH
         MD  5
       &END EACH
     &END TRAJECTORY
     &VELOCITIES  SILENT
       &EACH
         MD  5
       &END EACH
     &END VELOCITIES
     &RESTART  SILENT
       &EACH
         MD  10
       &END EACH
     &END RESTART
   &END PRINT
 &END MOTION
 &FORCE_EVAL
   METHOD  QS
   &DFT
     BASIS_SET_FILE_NAME BASIS_MOLOPT
     POTENTIAL_FILE_NAME GTH_POTENTIALS
     WFN_RESTART_FILE_NAME ./1-RESTART.wfn
     UKS  T
     CHARGE  0
     &SCF
       MAX_SCF  60
       EPS_SCF     1.0000000000000001E-05
       SCF_GUESS  ATOMIC
       &OT  T
         MINIMIZER  BROYDEN
         BROYDEN_BETA     9.0000000000000002E-01
         BROYDEN_SIGMA     1.0000000000000001E-01
         LINESEARCH  2PNT
         PRECONDITIONER  FULL_ALL
       &END OT
       &OUTER_SCF  T
         EPS_SCF     1.0000000000000001E-05
         MAX_SCF  50
       &END OUTER_SCF
       &PRINT
         &RESTART_HISTORY  SILENT
           ADD_LAST  NUMERIC
           FILENAME = MD_RESTART_HISTORY.wfn
           BACKUP_COPIES  5
           &EACH
           &END EACH
         &END RESTART_HISTORY
       &END PRINT
     &END SCF
     &QS
       EPS_DEFAULT     9.9999999999999998E-13
       EPS_PGF_ORB     9.9999999999999995E-07
       EXTRAPOLATION  ASPC
       EXTRAPOLATION_ORDER  2
     &END QS
     &MGRID
       NGRIDS  5
       CUTOFF     4.5000000000000000E+02
       REL_CUTOFF     6.0000000000000000E+01
     &END MGRID
     &XC
       DENSITY_CUTOFF     1.0000000000000000E-10
       GRADIENT_CUTOFF     1.0000000000000000E-10
       TAU_CUTOFF     1.0000000000000000E-10
       &XC_GRID
         XC_SMOOTH_RHO  NN10
         XC_DERIV  NN10_SMOOTH
       &END XC_GRID
       &XC_FUNCTIONAL  NO_SHORTCUT
         &PBE  T
         &END PBE
       &END XC_FUNCTIONAL
       &VDW_POTENTIAL
         POTENTIAL_TYPE  PAIR_POTENTIAL
         &PAIR_POTENTIAL
           R_CUTOFF     1.0000000000000002E+01
           TYPE  DFTD3
           PARAMETER_FILE_NAME dftd3.dat
           REFERENCE_FUNCTIONAL PBE
         &END PAIR_POTENTIAL
       &END VDW_POTENTIAL
     &END XC
     &PRINT
       &MULLIKEN  SILENT
         FILENAME =CHARGE.mulliken
         &EACH
           MD  5
         &END EACH
       &END MULLIKEN
     &END PRINT
   &END DFT
   &SUBSYS
     &CELL
       A     1.0223900000000002E+01    0.0000000000000000E+00    0.0000000000000000E+00
       B     0.0000000000000000E+00    1.0223900000000002E+01    0.0000000000000000E+00
       C     0.0000000000000000E+00    0.0000000000000000E+00    2.6422000000000001E+01
       PERIODIC  XYZ
       MULTIPLE_UNIT_CELL  1 1 1
     &END CELL
     &COORD
Cu    5.5651146992853728E-01    9.6654363692147225E+00    1.4562991673088146E-01
Cu    3.1845160508020594E+00    2.0692165387021277E+00    4.4853541866981074E-02
Cu    6.8448337506869839E-01    9.6401582893747086E+00    3.7420987168393118E+00
Cu    3.2435673866838761E+00    1.9649394670708806E+00    3.6299346667005237E+00
Cu    3.1462310237738191E+00    9.6762139556692333E+00    1.7868688088373313E-01
Cu    6.4949175116262459E-01    2.0347920897885015E+00    6.6801888863830566E-02
Cu    3.2563515763382020E+00    9.7841278919494066E+00    3.7357723653990780E+00
Cu    5.0439330893719614E-01    2.0541572903424759E+00    3.5133929360476617E+00
Cu    4.3687101297932900E+00    7.5385454927380202E-01    2.4955814087798966E+01
Cu    1.8505712736602722E+00    3.3865908441077313E+00    2.4671955136257051E+01
Cu    4.3330670693966544E+00    8.2862423055070245E-01    1.8010319817330187E+00
Cu    1.9431579370490861E+00    3.1816473881439387E+00    1.9154639524331505E+00
Cu    1.8053589071352081E+00    7.0385875922251107E-01    2.4745416603018331E+01
Ag    4.5807279214798307E+00    3.3646873198432079E+00    2.4562223369238939E+01
Cu    1.8832461120175308E+00    7.5707256728024719E-01    1.8631424278225897E+00
Cu    4.4023371575511963E+00    3.3610046094720927E+00    1.8976306846792401E+00
Cu    5.7415473871956522E+00    9.7242481423698521E+00    2.5403183836389209E-01
Cu    8.3889048127874393E+00    2.0332357699665216E+00    1.7655899971125255E-01
Cu    5.8300187029228496E+00    9.7956939783524675E+00    3.7963542626433289E+00
Cu    8.2725218599222092E+00    1.9698287397787420E+00    3.7085738043668011E+00
Cu    8.2413428003584421E+00    9.7456797150884071E+00   -1.6077716393124414E-02
Cu    5.7854674890953026E+00    2.0268154061389647E+00    1.4830306541794039E-01
Cu    8.2194530179876075E+00    9.7172210008725042E+00    3.7026745443461029E+00
Cu    5.7648292277502762E+00    2.0982922440059095E+00    3.5759028054409132E+00
Cu    9.4068383871830950E+00    8.6229324103265093E-01    2.4652542473718650E+01
Cu    7.1534774690955576E+00    3.3848109129231805E+00    2.4892968836755600E+01
Cu    9.5860507583360928E+00    7.7233159184873934E-01    1.9333543124773047E+00
Cu    7.0426217771488195E+00    3.3787081197616753E+00    1.8619915253156527E+00
Cu    6.8139502875924336E+00    8.4602963534847131E-01    2.4804594290213114E+01
Cu    9.4998600686800643E+00    3.3928621703047930E+00    2.4851265015624595E+01
Cu    7.0845154292402635E+00    7.1272213780649296E-01    1.9118971592639031E+00
Cu    9.5420396205670617E+00    3.3475135568666028E+00    1.9201567612894606E+00
Cu    6.5262115800991383E-01    4.5829516652466671E+00    1.1187545834079521E-01
Cu    3.0828198037678134E+00    7.2085863381845234E+00    1.2915259812159757E-01
Cu    6.1802848482782324E-01    4.5892208747259104E+00    3.6561106873885350E+00
Cu    3.1982226537061953E+00    7.1253421010727447E+00    3.7318056926233205E+00
Cu    3.2456062020040464E+00    4.6751035936915688E+00    4.3940490606137354E-02
Cu    6.0313114313871086E-01    7.1257502210365322E+00    1.0917022719081493E-01
Cu    3.1859670413385945E+00    4.5255946100998017E+00    3.6572050513249357E+00
Cu    6.5501039284212781E-01    7.1036707466835578E+00    3.7284200214138918E+00
Cu    4.4537265323964679E+00    6.1108762966597308E+00    2.4794377060501656E+01
Cu    1.7146552176057792E+00    8.3960592985613012E+00    2.4578044894223343E+01
Cu    4.4877702422305124E+00    5.9238688220540183E+00    1.9602859956847336E+00
Cu    1.9832050529524801E+00    8.3829490551270567E+00    2.0056402196330105E+00
Cu    2.0209864471220498E+00    5.7986656094787739E+00    2.4742603636824374E+01
Cu    4.3085636069829283E+00    8.5706278850282960E+00    2.4860816520147985E+01
Cu    1.9260916052325374E+00    5.8460831211247024E+00    1.9515237176773028E+00
Cu    4.4375712964138954E+00    8.4735783304360179E+00    2.0269766993493765E+00
Cu    5.7103036075910527E+00    4.6857577145599167E+00    1.2855667078526259E-01
Cu    8.3032671843541888E+00    7.2232110683706505E+00    8.3725969353980079E-02
Ag    5.8565509576502723E+00    4.7095747469350728E+00    3.9361845160697371E+00
Cu    8.2906740461444919E+00    7.0341951173488590E+00    3.8707260931674088E+00
Cu    8.2179640372190406E+00    4.6888245635284580E+00    1.4222368493177934E-01
Cu    5.7176309539879639E+00    7.3006775056738382E+00    1.7026173681240081E-01
Cu    8.3980769797803756E+00    4.4490752657020121E+00    3.7310790108285583E+00
Cu    5.7547589503821719E+00    7.3286849861409324E+00    3.8311816120921258E+00
Cu    9.5904345567660592E+00    5.9763220666054533E+00    2.4829460056011690E+01
Cu    6.7882755730579634E+00    8.3830071122517005E+00    2.4728178137672707E+01
Cu    9.5390732373417286E+00    5.8618552243955220E+00    2.0358961459132505E+00
Cu    6.9477089839731763E+00    8.4165370186584028E+00    1.9197541320629916E+00
Cu    7.0139328940094803E+00    5.7836719661467519E+00    2.4661517392564132E+01
Cu    9.5083734209469295E+00    8.4403344699700629E+00    2.4807907059485679E+01
Cu    7.0418795622544730E+00    6.0573458240776050E+00    1.8871233776411904E+00
Cu    9.4806148977710780E+00    8.4503773417156314E+00    1.8688589420573238E+00
O    8.2939523724072188E+00    1.2492796990897144E+00    6.7629651612904587E+00
H    7.3988135563611968E+00    1.6298221654518024E+00    6.7086435984743797E+00
H   -1.6799594038372658E+00    1.2271851158108400E+00    5.8320519314711321E+00
O    5.8161551925812507E+00    8.3796502640872585E+00    7.2484344097939921E+00
H    5.9720725281216112E+00    8.4443794522137434E+00    8.3040296787676358E+00
H    5.5202228030894229E+00    9.1820373337975827E+00    6.8444579637536807E+00
O   -1.4801611351124655E-01    1.0463325028370049E+01    1.7995909683664919E+01
H   -1.5674110752730713E-01    1.0969320670935998E+00    1.8579701023210387E+01
H    1.0974090840206943E-01    9.6292760843720426E+00    1.8389559938022042E+01
O    1.6486697125889411E+00    2.3330083811372355E+00    6.4388758466591067E+00
H    1.4192651225435262E+00    1.4805010305951791E+00    6.1255623926920943E+00
H    2.2337761046102034E+00    2.4792615858143323E+00    5.6553974077087155E+00
O    1.4511192723983874E+00    6.2444613443982062E+00    6.7686147401833772E+00
H    2.3128735964857965E+00    5.7971904090137247E+00    6.6457926696436713E+00
H    1.0824666420281202E+00    6.3508509503223367E+00    5.8553671311564743E+00
O    2.1436294104003730E+00    5.3190286363116215E+00    1.4956408167951343E+01
H    1.4084881644677179E+00    4.5631642290473007E+00    1.5231090408108084E+01
H    2.4908351633463939E+00    5.5630690558766371E+00    1.5858208373408365E+01
O    9.0953374451678997E+00    6.2546171045239838E+00    1.7937644634451857E+01
H    8.8572824422820045E+00    5.7469157930919446E+00    1.7118567099406970E+01
H   -4.5050829560653965E-01    6.9489305859865347E+00    1.7790065877402448E+01
O    6.7844482369807473E+00    8.8089232979334975E-01    2.2655074952664531E+01
H    5.8800431810930736E+00    4.7177948346658460E-01    2.2323822601196795E+01
H    6.6138494234518452E+00    1.7753199382484115E+00    2.2259313300114037E+01
O    5.0748177675000550E+00    5.0501058935081229E+00    1.8416284942446449E+01
H    5.7812277654398470E+00    5.6100376399106695E+00    1.8791618682998639E+01
H    4.3135234856650104E+00    5.6344220294471210E+00    1.8044328731418240E+01
O    2.5313303350181924E+00    7.9842345953455753E+00    1.2709850182075476E+01
H    1.7190032481772068E+00    7.8948787073077105E+00    1.3339743320305372E+01
H    2.9377612811143994E+00    8.8111271607343244E+00    1.3197870745646867E+01
O    6.3240845007188096E+00    3.1371626919788995E+00    1.6978020453764110E+01
H    5.7094577225078931E+00    2.6028529978294115E+00    1.6369504184430841E+01
H    5.7891559968341690E+00    3.8661758048963804E+00    1.7354649811071347E+01
O    1.0702151057728074E+01    1.0441600116752056E+01    2.1750449761588769E+01
H    1.0199845445634489E+01    1.0334697418297100E+01    2.2582287093410244E+01
H    1.0137183884596379E+01    8.4078137131015385E-01    2.1219806421284954E+01
O    3.0133775761414370E+00    6.2727642740604894E+00    1.7331338780018594E+01
H    2.2019805692078389E+00    6.2924936906827309E+00    1.7894445878935571E+01
H    3.2481424994254966E+00    7.2281328632945083E+00    1.7017611043137819E+01
O    4.5111625960853772E+00    3.7287213445436187E+00    1.1467148593809398E+01
H    3.5454428503157822E+00    3.6021762625882792E+00    1.1236802581874288E+01
H    4.6176766344660960E+00    3.7656953761417840E+00    1.2482309929734679E+01
O    1.0090639127019396E+00    1.0092814449201983E+01    1.5455125765639389E+01
H    5.8634645398131280E-01    9.1784187642483328E+00    1.5327260323469153E+01
H    5.5717787834136900E-01    1.0457207608500022E+01    1.6155028875735713E+01
O    5.6396557132186409E+00    1.7319576569442621E+00    1.0172688143836352E+01
H    5.3355105718626232E+00    2.5566185500326220E+00    1.0681617275131615E+01
H    6.5996741629221143E+00    1.8135429084546821E+00    9.9874540348565244E+00
O    3.0777610657434007E+00    9.1370302966576507E+00    1.9471964326615986E+01
H    3.0719859647238770E+00    9.2910753520020837E+00    2.0458353007327247E+01
H    3.9343854144069099E+00    9.4432627408592058E+00    1.9116009958483275E+01
O    1.3941544297852375E+00    4.9910424317209756E+00    1.1533811328737750E+01
H    1.6530890611225635E+00    4.8190287342907450E+00    1.0589011408605355E+01
H    2.0032866524018922E+00    5.7002777009522623E+00    1.1843130707063748E+01
C    5.5672562638903527E+00    3.6188462642484480E+00    7.0561935498867463E+00
O    3.7730381026178370E+00    1.4604273958168651E-01    1.3772747004624227E+01
H    4.5599211412073037E+00    1.0292986720584301E+01    1.3133838027639284E+01
H    3.2316742184695388E+00    7.9119294972034437E-01    1.3287870257448397E+01
O    8.1295479946610794E+00    9.8206147039141651E+00    1.2405701186058870E+01
H    8.1609962893352712E+00    9.1994489883534918E+00    1.3241080704005702E+01
H    8.1761153073304378E+00    1.0760405918957145E+01    1.2663840490270770E+01
O    2.7760522912394396E+00    1.9076644809506502E+00    2.1856667722330577E+01
H    2.9106788626407059E+00    2.2426050340434203E+00    2.2746223500668762E+01
H    1.8911172753563037E+00    1.4822033332598945E+00    2.1796491705005359E+01
O    9.7287305351712572E+00    7.5287391467986389E+00    2.1560466775866583E+01
H    1.0085348773553010E+01    7.5011313480765924E+00    2.2487950036719294E+01
H    9.1209991255852554E+00    8.2647530531196782E+00    2.1408297981756025E+01
O    1.0749091783764859E+01    1.6410150516171942E+00    1.3532291624147721E+01
H    8.7748116510384744E-01    2.3752655089748509E+00    1.4140426875901937E+01
H    1.0988567698652149E+01    8.2004870328011115E-01    1.4094697356867817E+01
O    7.7128203009839398E+00    4.5991614073407385E+00    1.3586917057377441E+01
H    7.7537190322879992E+00    3.6753948350511347E+00    1.3172803965908937E+01
H    6.7353419721828072E+00    4.8736452542739519E+00    1.3790122604534785E+01
O    6.7593142003611950E-01    3.2189079269854615E+00    1.5629993300156045E+01
H   -2.7640615571550048E-01    3.5326833197242919E+00    1.5975724551345342E+01
H    1.2111701646898374E+00    2.9236624907609206E+00    1.6359518374218180E+01
O    1.5442492678221005E+00    5.5609121392788827E+00    2.1896185611463139E+01
H    1.1664962003506527E+00    4.8040497361765357E+00    2.2484747662893898E+01
H    2.4368758811882310E+00    5.2610341584859217E+00    2.1526480452194072E+01
O    4.6041387299330788E-01    4.6019633575619796E+00    1.9402476552920241E+01
H    7.6790071711714736E-01    5.1431863181334672E+00    2.0136008631916422E+01
H   -1.3671214319477079E-01    5.0862087769495190E+00    1.8858570680880213E+01
O    1.5992156878834156E+00    9.3392637573238719E+00    1.0367253429919000E+01
H    2.0543173829244741E+00    8.8415589431889803E+00    1.1112445584004979E+01
H    5.8130203426425597E-01    9.2460716421074238E+00    1.0395865689253077E+01
O    2.5132068211509844E+00    2.0208293242166828E+00    1.7349107825334922E+01
H    2.0986699066873489E+00    1.1403979852573167E+00    1.7549809182317876E+01
H    2.9198768528191117E+00    2.3707311571383012E+00    1.8132757542684551E+01
K    2.8174337286056192E+00    7.8605095584002678E+00    8.5879073952572593E+00
O    5.4832046068623592E+00    9.8489516562242905E+00    1.1875884043779097E+01
H    6.4314482242597020E+00    9.7324645961919884E+00    1.2145888489262266E+01
H    5.6995731195838761E+00    4.8994180346206817E-01    1.1230686952801703E+01
O    5.2078234649819910E+00    8.3193169240646530E+00    9.8812330647878266E+00
H    5.3168732672075709E+00    8.9381647467632259E+00    1.0649652752603574E+01
H    5.4914869543079181E+00    7.4383808882587585E+00    1.0199154213912044E+01
O    7.9765525064634586E+00    8.1794613312897475E+00    1.4365490215939365E+01
H    7.1681963859643520E+00    7.9012883289531386E+00    1.3916296285110997E+01
H    7.8285433655289740E+00    8.7734872901491574E+00    1.5140935668503838E+01
O    4.4360561803716134E+00    6.2000187900708159E+00    6.8854535981487075E+00
H    4.8830819107881096E+00    7.1513724242243688E+00    6.9534392141119330E+00
H    4.2914127450373307E+00    6.1175905396556587E+00    5.9118816719796623E+00
O   -1.0041549881774263E+00    6.3533869876873590E+00    1.1800461745074900E+01
H   -9.9224237678028543E-02    5.8340856933884711E+00    1.1904920403816377E+01
H   -1.6228970049296401E+00    5.8313417086679529E+00    1.2413449588395640E+01
O    6.0514643820735099E+00    7.3009528158231225E+00    2.1655346404902943E+01
H    6.7928632465180838E+00    7.0908683893393549E+00    2.2268302899031070E+01
H    5.4977035009242030E+00    7.9768357850585705E+00    2.2125415832116587E+01
O    7.7517046591739618E+00    1.0113414145940716E+01    1.6198193975950652E+01
H    7.0845659177979119E+00    1.0084730501714024E+01    1.6994681599041744E+01
H    8.6332707441683105E+00    1.0300388549072583E+01    1.6622288402420839E+01
O    7.1383982467367249E+00    1.6560426604872969E+00    1.9147306413478464E+01
H    6.5546247558726094E+00    1.9127404387552744E+00    1.9857532607372764E+01
H    6.9390264908865298E+00    2.2516053617140335E+00    1.8407679600580014E+01
O    8.3713121926860357E+00    2.3557016459370845E+00    9.9809916933200462E+00
H    9.3045819847077347E+00    2.0508402445852729E+00    9.6123690764778313E+00
H    8.2422389482945437E+00    3.3147002552800866E+00    9.7687262748248003E+00
O    8.5670177313734825E+00    5.0908018923347527E+00    2.1778472190853211E+01
H    8.8373694257229012E+00    4.9197332471505026E+00    2.2742736053761341E+01
H    8.9850363198074046E+00    5.9169639144853372E+00    2.1549919310928914E+01
O    5.5105160518166088E+00    5.5310374741682180E+00    9.6945769462098905E+00
H    5.1301644516781213E+00    5.6878115906975539E+00    8.8316497190265881E+00
H    4.7884742833631115E+00    5.0196492270047539E+00    1.0185556781670291E+01
O    8.2438092143490458E+00    5.0222265681213898E+00    9.5893459460976942E+00
H    7.2668967066454622E+00    5.2997076041315063E+00    9.5681309849512193E+00
H    8.6279313741745138E+00    5.5538218777218615E+00    1.0361697707303307E+01
O    8.1415100553054689E+00    2.1943317486318565E+00    1.2490832426836054E+01
H    8.2595283269220463E+00    2.2596733282441281E+00    1.1491531048972854E+01
H    9.0798896207499933E+00    2.1980703699559800E+00    1.2806747195674921E+01
O    4.6830016023578818E+00    1.7605037936314445E+00    1.5639811793003114E+01
H    4.6187102395688209E+00    1.0784499015801232E+00    1.4918445134427198E+01
H    3.8161858858124087E+00    1.7547699657127680E+00    1.6115349083251640E+01
O    4.5746246146050380E+00    4.0521083792757064E+00    1.4140110876531507E+01
H    4.3352279928988606E+00    3.1848252845109388E+00    1.4573230814953124E+01
H    3.6976298629562159E+00    4.5131438061733151E+00    1.4259097083219528E+01
O    7.9988644793364490E+00    9.4959226566136241E+00    2.0692827712338339E+01
H    8.6067537538820176E+00    1.0030377915028330E+01    2.0205842446998403E+01
H    7.6907637137676632E+00    1.0058688088187676E+01    2.1459502634139056E+01
O    4.4351525948918242E+00    5.0718515364908390E+00    2.1567555159996161E+01
H    5.1899904053048980E+00    5.7568061563926038E+00    2.1571554237597450E+01
H    4.4915407579613911E+00    4.8210869162774177E+00    2.2515190375032773E+01
O    9.2874132540259815E+00    8.8930623172537064E+00    1.0392952820849304E+01
H    9.3829862591424913E+00    7.9451438125905911E+00    1.0741196553497671E+01
H    8.8638192594692367E+00    9.3200657408611267E+00    1.1206471854620650E+01
O    8.5899604186626046E+00    4.4330484337342346E+00    1.6026518226023089E+01
H    8.2229550550268709E+00    4.5329270512808302E+00    1.5114658522759621E+01
H    7.7627985642416757E+00    3.8571016232664594E+00    1.6416521486134315E+01
O    2.3206844911355740E+00    4.0573261833725764E+00    9.0742466702027365E+00
H    1.9822056065282896E+00    3.1947316738115696E+00    9.3314628812469778E+00
H    2.6857356511430326E+00    3.9303809493606772E+00    8.1843308268832136E+00
O    5.2933353280450737E+00    8.3766441459989760E-01    6.5802099419871540E+00
H    4.9536412660698179E+00    8.1630014305608978E-01    5.6600397739602624E+00
H    4.4249742901242417E+00    9.6542890367375678E-01    7.1926651915979125E+00
O    6.8512812807895429E+00    7.1809089726894353E+00    1.9137776197865342E+01
H    7.6816252611554017E+00    6.7471761255790579E+00    1.8783281947932661E+01
H    6.8445378921428368E+00    7.3989337796707222E+00    2.0142159604804743E+01
O   -6.6728161321799262E-01    2.1273690979301616E+00    1.9885344013627613E+01
H   -2.9335662169876786E-01    3.0158074748781347E+00    1.9671287083887833E+01
H    8.5580496067915437E+00    2.0394352312759363E+00    1.9581147441901933E+01
O    3.4763915059844135E+00    9.0716962501638720E-01    8.5775965543800137E+00
H    2.9005212727412877E+00    1.5952505802582588E+00    8.2462554118354099E+00
H    4.1206162570979465E+00    1.4129216374451710E+00    9.1575589257621406E+00
O    1.7888239335571348E+00   -8.5044924650059073E-01    6.6140317686621790E+00
H    1.8793664950121085E+00   -1.5108946520936690E+00    5.8405779835175053E+00
H    8.1939687200013456E-01   -8.1095109828610479E-01    6.6295976470326075E+00
O    4.5113211935849922E+00    1.0042642541466892E+01    2.1838188118287118E+01
H    3.9311478665051962E+00    1.0860404091573649E+01    2.1835406164892820E+01
H    4.3656778580857987E+00    9.7430290093760874E+00    2.2780468455584021E+01
O    5.4656056130989326E+00    7.2131878689207394E+00    1.3946476613450695E+01
H    4.9966501417231894E+00    7.5414138493091700E+00    1.4742982211824730E+01
H    4.8704949656210115E+00    7.3746935007262797E+00    1.3182035975904933E+01
K    9.4715378721894758E+00    4.4128644202553202E+00    6.9973395339668976E+00
O    2.5631246002339756E+00    1.7369058518922424E+00    1.1528863426192480E+01
H    1.7871085059653102E+00    1.7534647309854354E+00    1.2240386902900363E+01
H    2.2350856624540514E+00    9.4426965902612547E-01    1.1008068640095896E+01
O    5.7451142803149642E+00    9.1683100040486210E+00    1.8110066919045000E+01
H    5.9301726757184943E+00    9.8775501177666776E+00    1.8682763141567847E+01
H    6.3734176469768666E+00    8.4832564340754804E+00    1.8449956556405130E+01
O    2.0229936307488101E+00    8.2261987232673306E+00    2.2459571316118431E+01
H    1.2892909222753461E+00    8.6665133564484034E+00    2.2050512375245514E+01
H    1.8212155889805035E+00    7.2876020585259944E+00    2.2302410108254332E+01
O    4.1407012523732671E+00    8.3849425762588972E+00    1.6269265623141713E+01
H    3.7152229241784984E+00    9.1295081183095679E+00    1.5809668115676933E+01
H    4.7023722474927121E+00    8.7487899919785050E+00    1.6991882929022378E+01
O    4.7340541847035078E-01    1.3730258465607466E+00    9.0892611242909105E+00
H    1.0454807375201392E+01    8.5197323519096024E-01    8.3150339352077438E+00
H    9.9628965476362374E-01    6.6251232103731439E-01    9.5047485484469867E+00
O    6.3772659502271023E-01    7.4752069050926719E+00    1.4487830104514059E+01
H    9.4561793835598773E-01    6.5861965995263283E+00    1.4580155848735336E+01
H    9.9054788880908600E+00    7.6016592826643823E+00    1.4179991311320475E+01
O    9.0808557010049693E+00    9.1142187050053582E+00    7.5196156845453030E+00
H    8.6783789037926287E+00    9.9677146884540306E+00    7.3303899685492855E+00
H    8.9159560401143825E+00    8.9678791005283074E+00    8.4627168471746597E+00
O    7.8637338080519106E+00    7.0731382815092756E+00    6.1861898839700045E+00
H    6.9843425901881266E+00    7.3747560563619716E+00    6.2605183586751352E+00
H    8.3335607105909908E+00    7.8758673445720868E+00    6.5189246324784396E+00
O    8.3977624735225398E-01    7.8904549809319899E+00    1.8852357085212674E+01
H    1.6519045134196497E+00    8.4669069411713647E+00    1.8936152869700919E+01
H    6.0286985410609351E-01    7.7100534650374515E+00    1.9801857879259160E+01
O    6.6846115482426720E+00    3.1863259961068588E+00    2.1463416312707515E+01
O    3.8128528447561281E+00    2.8381882772448734E+00    1.9574938760114737E+01
H    4.1206434282439215E+00    3.7467628388817458E+00    1.9513311986788970E+01
H    3.2575899784668327E+00    2.6467881653505465E+00    2.0423076556388004E+01
O    4.4602001364237349E+00    3.3526797764514318E+00    7.3759308451496661E+00
O    6.7194207107340862E+00    3.7967946523479852E+00    6.9728113510254781E+00
H    5.8112538708432373E+00    3.6787579127778716E+00    2.1445025521691672E+01
H    7.3615746308454701E+00    4.0052780444135543E+00    2.1539626861533421E+01
     &END COORD
     &VELOCITY
          -2.0411495879023791E-04    2.9651933637154250E-05    2.1294844683381789E-05
          -5.2626391291092017E-05    9.6547294513685245E-05    3.0192321782013580E-05
           1.2259943845617031E-04    4.3422053998773781E-05    3.0044211156877732E-05
           1.0135555940169629E-05   -5.4245150706881124E-05    2.0566806747020800E-05
           5.5574689842577051E-05    1.1145758737058159E-04   -2.9201604871217380E-05
           6.4189726061645476E-05   -8.2100008007705640E-05   -1.9972539855860808E-05
          -1.3407161777967218E-04    7.8459981309743156E-05    2.6256987185357555E-06
           1.1693007910510720E-04    1.4135324772433384E-04   -8.8247703203375965E-05
           4.0941452391175248E-05    1.7953279405470390E-04   -1.4821404686606265E-04
           1.8032840711981724E-04   -1.1788240346194606E-04   -6.9381043039465159E-05
          -8.6092451508338857E-05   -1.8567102427321494E-04   -2.2390561986586965E-06
           4.4058740762453700E-05    1.5611604200142060E-05    4.1064540418086412E-05
           5.5562910234646921E-05   -1.0665196526550424E-04    2.1615662698474389E-04
          -7.3627762000787439E-05    7.3415725587592682E-05   -2.0845036743152447E-05
           1.9257657645521291E-05   -5.0173233181564595E-05   -2.5553537967134962E-05
           4.3403664784259119E-05   -2.1013133552206395E-04   -9.9636149783364700E-05
          -7.5809253747250234E-06    9.8371512392247444E-06   -3.2183524729453261E-05
           2.5006479770830974E-05    5.5127900513208621E-05    8.6448497078412553E-05
          -1.8431967507423678E-05   -2.0225187033516025E-05   -2.3510473162458132E-05
           3.9396851846001298E-06    1.9658780196147761E-04    6.2085034498915171E-05
          -4.9660175752740868E-05   -1.4048275276980861E-04   -7.0569203773987143E-06
           1.0446021824361286E-04   -1.3217715880660261E-04   -1.6253765990172726E-04
           3.5560685791816824E-06   -3.0979220395644649E-05   -5.1196147604287072E-05
          -2.4982873730914007E-05   -2.2046953706655101E-05   -5.4871326806823062E-05
           8.4698942839179242E-05   -1.0424608420123618E-04    8.4127629789431885E-05
          -3.4365877391260530E-05   -8.2138107338420967E-05   -8.1190513951307606E-06
          -5.1909215835875296E-05   -1.4056924578850270E-05   -2.4918114334481415E-05
           4.5944628474778132E-05    8.1816998540999809E-05    1.6178319917813338E-04
          -2.7522973428497841E-05    7.5690229721001446E-05   -7.9145530343808612E-05
          -2.7950368440580969E-06    3.3859377610685310E-05    5.4487772937952351E-06
           3.9040148887034468E-05   -3.1519734264829454E-05    2.1735308148461877E-04
           1.2470693957218905E-04    3.9699880448738785E-05    4.2974721060169424E-05