 # Version information for this restart file 
 # current date 2026-03-02 21:43:32.118
 # current working dir /home/shaofl/projects/03_CuAg_SAA/explicit/single-side/co2/2k/ad_stru/desorb
 # Program compiled at                              Wed Jun 16 17:08:34 CST 2021
 # Program compiled on                                                       mgr
 # Program compiled for                                       Linux-x86-64-intel
 # Source code revision number                                       git:e635599
 &GLOBAL
   PRINT_LEVEL  LOW
   PROJECT_NAME slowgrowth
   RUN_TYPE  MD
 &END GLOBAL
 &MOTION
   &MD
     ENSEMBLE  NVT
     STEPS  6000
     TIMESTEP     9.9999999999999989E-01
     STEP_START_VAL  1500
     TIME_START_VAL     1.5000000000000152E+03
     ECONS_START_VAL    -4.3015317591289058E+03
     TEMPERATURE     3.0014999999999998E+02
     &THERMOSTAT
       TYPE  NOSE
       REGION  GLOBAL
       &NOSE
         LENGTH  3
         TIMECON     2.2237606346543473E+01
         &COORD
               3.0824741346813553E-02    2.5271327445061238E+00    7.7796157344357439E+00
         &END COORD
         &VELOCITY
               2.3584938893876640E-05   -1.6518408566682334E-03   -4.4372601386950767E-04
         &END VELOCITY
         &MASS
               6.4750332819943212E+05    8.0335400521021347E+02    8.0335400521021347E+02
         &END MASS
         &FORCE
              -1.0850277363327979E-07   -7.3485203384617544E-07    1.5453892117541844E-06
         &END FORCE
       &END NOSE
     &END THERMOSTAT
     &AVERAGES  T
       &RESTART_AVERAGES
         ITIMES_START  1
         AVECPU     2.2117819654673347E+01
         AVEHUGONIOT     0.0000000000000000E+00
         AVETEMP_BARO     0.0000000000000000E+00
         AVEPOT    -4.3018700085432974E+03
         AVEKIN     3.8429693165198336E-01
         AVETEMP     3.0111967315778492E+02
         AVEKIN_QM     0.0000000000000000E+00
         AVETEMP_QM     0.0000000000000000E+00
         AVEVOL     1.8637835790266097E+04
         AVECELL_A     1.9320371010009548E+01
         AVECELL_B     1.9320371010009548E+01
         AVECELL_C     4.9930343883104669E+01
         AVEALPHA     9.0000000000000000E+01
         AVEBETA     9.0000000000000000E+01
         AVEGAMMA     9.0000000000000000E+01
         AVE_ECONS     3.1953174481425748E+01
         AVE_PRESS     0.0000000000000000E+00
         AVE_PXX     0.0000000000000000E+00
       &END RESTART_AVERAGES
     &END AVERAGES
     &PRINT
       &ENERGY  SILENT
       &END ENERGY
     &END PRINT
   &END MD
   &CONSTRAINT
     &COLLECTIVE
       COLVAR  1
       INTERMOLECULAR  T
       TARGET     2.3998975346622666E+00
       TARGET_GROWTH     4.2217495722394033E-06
     &END COLLECTIVE
     &LAGRANGE_MULTIPLIERS  SILENT
       COMMON_ITERATION_LEVELS  1
       FILENAME constraint_force.dat
     &END LAGRANGE_MULTIPLIERS
   &END CONSTRAINT
   &PRINT
     &TRAJECTORY  SILENT
       &EACH
         MD  5
       &END EACH
     &END TRAJECTORY
     &VELOCITIES  SILENT
       &EACH
         MD  5
       &END EACH
     &END VELOCITIES
     &RESTART  SILENT
       &EACH
         MD  10
       &END EACH
     &END RESTART
   &END PRINT
 &END MOTION
 &FORCE_EVAL
   METHOD  QS
   &DFT
     BASIS_SET_FILE_NAME BASIS_MOLOPT
     POTENTIAL_FILE_NAME GTH_POTENTIALS
     WFN_RESTART_FILE_NAME ./1-RESTART.wfn
     UKS  T
     CHARGE  0
     &SCF
       MAX_SCF  60
       EPS_SCF     1.0000000000000001E-05
       SCF_GUESS  ATOMIC
       &OT  T
         MINIMIZER  BROYDEN
         BROYDEN_BETA     9.0000000000000002E-01
         BROYDEN_SIGMA     1.0000000000000001E-01
         LINESEARCH  2PNT
         PRECONDITIONER  FULL_ALL
       &END OT
       &OUTER_SCF  T
         EPS_SCF     1.0000000000000001E-05
         MAX_SCF  50
       &END OUTER_SCF
       &PRINT
         &RESTART_HISTORY  SILENT
           ADD_LAST  NUMERIC
           FILENAME = MD_RESTART_HISTORY.wfn
           BACKUP_COPIES  5
           &EACH
           &END EACH
         &END RESTART_HISTORY
       &END PRINT
     &END SCF
     &QS
       EPS_DEFAULT     9.9999999999999998E-13
       EPS_PGF_ORB     9.9999999999999995E-07
       EXTRAPOLATION  ASPC
       EXTRAPOLATION_ORDER  2
     &END QS
     &MGRID
       NGRIDS  5
       CUTOFF     4.5000000000000000E+02
       REL_CUTOFF     6.0000000000000000E+01
     &END MGRID
     &XC
       DENSITY_CUTOFF     1.0000000000000000E-10
       GRADIENT_CUTOFF     1.0000000000000000E-10
       TAU_CUTOFF     1.0000000000000000E-10
       &XC_GRID
         XC_SMOOTH_RHO  NN10
         XC_DERIV  NN10_SMOOTH
       &END XC_GRID
       &XC_FUNCTIONAL  NO_SHORTCUT
         &PBE  T
         &END PBE
       &END XC_FUNCTIONAL
       &VDW_POTENTIAL
         POTENTIAL_TYPE  PAIR_POTENTIAL
         &PAIR_POTENTIAL
           R_CUTOFF     1.0000000000000002E+01
           TYPE  DFTD3
           PARAMETER_FILE_NAME dftd3.dat
           REFERENCE_FUNCTIONAL PBE
         &END PAIR_POTENTIAL
       &END VDW_POTENTIAL
     &END XC
     &PRINT
       &MULLIKEN  SILENT
         FILENAME =CHARGE.mulliken
         &EACH
           MD  5
         &END EACH
       &END MULLIKEN
     &END PRINT
   &END DFT
   &SUBSYS
     &CELL
       A     1.0223900000000002E+01    0.0000000000000000E+00    0.0000000000000000E+00
       B     0.0000000000000000E+00    1.0223900000000002E+01    0.0000000000000000E+00
       C     0.0000000000000000E+00    0.0000000000000000E+00    2.6422000000000001E+01
       PERIODIC  XYZ
       MULTIPLE_UNIT_CELL  1 1 1
     &END CELL
     &COORD
Cu    1.8203463095824737E-01    9.8784010960994628E+00    5.4894659253411004E-01
Cu    3.0594835334215804E+00    2.1815586917128322E+00    4.0581386023542282E-01
Cu    5.8973022766266159E-01    9.8356441305766094E+00    3.9897408196537456E+00
Cu    2.9724083584653185E+00    2.1802786715237370E+00    3.9016389557897031E+00
Cu    2.8214658876714331E+00    9.8330248094394310E+00    3.4480035107926754E-01
Cu    3.7128103689370018E-01    2.2500493549668366E+00    5.5075332833011759E-01
Cu    3.0965353192448037E+00    9.7698967140821260E+00    3.9744125667215666E+00
Cu    4.1739744043037452E-01    2.1853729793861572E+00    3.9239449552300161E+00
Cu    4.2765578985808990E+00    8.6490477186212367E-01    2.5165900551925969E+01
Cu    1.6256921911553006E+00    3.3960844698843395E+00    2.5129732008670260E+01
Cu    4.1934347902567106E+00    8.9771338623345709E-01    2.2479070071700451E+00
Cu    1.7934372787993196E+00    3.4306031202412828E+00    2.2222130458595775E+00
Cu    1.6531408736048545E+00    9.2871145837303404E-01    2.5095414930116899E+01
Ag    4.2268849829764834E+00    3.3834510212032618E+00    2.4771406678259439E+01
Cu    1.7096641926230729E+00    9.2274225486492722E-01    2.1989030926603461E+00
Cu    4.3128360588461465E+00    3.3635947437838341E+00    2.3192420044613438E+00
Cu    5.4638255782851317E+00    9.6667410511467384E+00    4.4255424897602902E-01
Cu    7.9998331825575120E+00    2.0390391047461303E+00    5.4954842834418183E-01
Cu    5.4674834889994521E+00    9.8056471638578913E+00    3.9433921615333021E+00
Cu    8.0283324892634553E+00    2.1821332658918156E+00    4.1135294292157516E+00
Cu    7.9249638427761306E+00    9.7199718731457505E+00    5.2581568889361618E-01
Cu    5.6238198980636822E+00    2.0130105106238028E+00    4.8685728359360819E-01
Cu    7.9006009299784212E+00    9.8274521816807017E+00    4.1674684501623682E+00
Cu    5.4428756273731267E+00    2.0397497872966777E+00    4.0916807675772473E+00
Cu    9.3486559733864336E+00    1.0583801109727886E+00    2.5197659426742959E+01
Cu    6.9040149527682102E+00    3.4281310131324290E+00    2.5311643647478643E+01
Cu    9.1555012313056103E+00    8.4713132124939983E-01    2.4036731625905410E+00
Cu    6.7989230729200028E+00    3.3805035321927113E+00    2.4257805651352364E+00
Cu    6.6361708690102290E+00    8.4338479458914350E-01    2.5028836426384760E+01
Cu    9.3536239718153595E+00    3.4330262143344528E+00    2.5220473301833586E+01
Cu    6.7657862405461229E+00    8.5656802564378176E-01    2.2478353355200675E+00
Cu    9.3874061327984801E+00    3.4312707994033578E+00    2.2268331390757345E+00
Cu    4.7688077990074340E-01    4.7531384492271149E+00    5.8791919324934472E-01
Cu    3.0137680009208854E+00    7.4005426792141034E+00    3.2830088996080298E-01
Cu    5.3050455053605161E-01    4.7149468010610720E+00    4.0317715902274358E+00
Cu    2.8813348605111897E+00    7.2666022878200387E+00    3.9793813132900295E+00
Cu    2.9774271432755599E+00    4.7214799571877100E+00    4.2648031574159045E-01
Cu    4.0171017023813044E-01    7.2833104587555191E+00    4.8703872201432125E-01
Cu    3.0493661280124624E+00    4.6675304877230799E+00    4.2032656474787133E+00
Cu    4.5248062161978864E-01    7.1464013934933162E+00    4.0981827403974274E+00
Cu    4.2959818067606861E+00    5.9308252421610783E+00    2.5058015724283976E+01
Cu    1.6417514166300380E+00    8.6222265779823761E+00    2.5079094846012900E+01
Cu    4.2758320478179224E+00    5.9498210666081564E+00    2.3186363226010545E+00
Cu    1.7100182622752433E+00    8.6016942160478784E+00    2.2222943963428494E+00
Cu    1.7081320188842821E+00    5.8855744271976755E+00    2.5315949584686628E+01
Cu    4.2921166543544729E+00    8.5239004543715726E+00    2.4919982935548056E+01
Cu    1.7572471770790903E+00    6.0927138306633219E+00    2.2798332935981964E+00
Cu    4.1600109873173299E+00    8.3807437614354061E+00    2.2172760214844511E+00
Cu    5.4530361958598181E+00    4.6337117581301523E+00    5.5933882886201403E-01
Cu    8.1957555473420722E+00    7.1133257345944703E+00    5.8350088053239257E-01
Ag    5.5994130013970711E+00    4.7402337561287498E+00    4.2696862555345119E+00
Cu    8.0849780763902928E+00    7.1524526239475730E+00    4.2833533349575621E+00
Cu    8.1479200158866085E+00    4.6228571886169592E+00    5.6266409666936101E-01
Cu    5.6053545837568484E+00    7.1536520079316857E+00    5.0560990430439301E-01
Cu    8.2022174845691307E+00    4.6775323631823733E+00    4.0731660153145217E+00
Cu    5.4107957070576465E+00    7.4248334509932272E+00    4.1123053104515703E+00
Cu    9.4287760812128827E+00    5.9133132974198022E+00    2.5275112416330234E+01
Cu    6.8163897384762002E+00    8.3133344192947565E+00    2.5182681712982351E+01
Cu    9.3864469843295186E+00    5.9891603370974229E+00    2.3890837760166570E+00
Cu    6.6795471180767985E+00    8.5327272531110268E+00    2.3890354460574805E+00
Cu    6.9409032270053510E+00    5.7950641808450332E+00    2.5355987956861657E+01
Cu    9.2551266518260871E+00    8.4313751501336647E+00    2.5111302935231173E+01
Cu    6.8438120509312741E+00    5.9929404677264060E+00    2.3220631366385698E+00
Cu    9.2490788349707156E+00    8.5665900836355071E+00    2.4181816519285118E+00
O    9.3264236590899365E+00    1.4382987561769234E+00    7.3709133170322501E+00
H    8.3304603730694176E+00    1.1759548412354466E+00    7.2477208138870157E+00
H   -4.5571919142581568E-01    1.3493038266581368E+00    6.4652964119627576E+00
O    6.4696423308814408E+00    8.5264437280862797E+00    7.8933240808071918E+00
H    5.9169735627049267E+00    8.4643399419161067E+00    8.7204749597766167E+00
H    6.4323598722982149E+00    9.4659347636382041E+00    7.6040220439469479E+00
O    1.3741441990066390E+00    1.0231097636822485E+01    1.8081124396346798E+01
H    1.0185335214260638E+00    8.6213877829641683E-01    1.8542359193500982E+01
H    1.6556021301815529E+00    9.6271167348403832E+00    1.8827430621094987E+01
O    1.5834411472305110E+00    2.6984441606222718E+00    6.6205548395948499E+00
H    2.3290709789998485E+00    2.0749729978741871E+00    6.7349789235945394E+00
H    1.8005105232957774E+00    3.1253062331743831E+00    5.8038384857515624E+00
O    1.5458599408705467E+00    5.6587585221255363E+00    7.5708417395870864E+00
H    1.9477026250071579E+00    5.1545528780743526E+00    8.3260426757776944E+00
H    1.9838204908151138E+00    5.3187048785672149E+00    6.7161576396572560E+00
O    2.9476885143944305E+00    6.1401753555822145E+00    1.5617947628557332E+01
H    2.6956717189810959E+00    5.2203908143207016E+00    1.5949137026700392E+01
H    3.2708063587196397E+00    6.5744987610518146E+00    1.6456028237872790E+01
O    1.0119969158147828E+01    6.5667374948249675E+00    1.7977025979989577E+01
H    9.9384325314578366E+00    5.8107140560105375E+00    1.7330408784002628E+01
H    4.0395868715723082E-01    7.1966332339918475E+00    1.7393439357138814E+01
O    7.4797567441609631E+00    8.3426420440329829E-01    2.3128412141597305E+01
H    7.0564968700498287E+00    1.9133821947765781E-02    2.2705490099216149E+01
H    7.2824167981133963E+00    1.7685319120861158E+00    2.2757852413559849E+01
O    5.9977646453311335E+00    5.3277527919600178E+00    1.9453569688004368E+01
H    6.5986897110507634E+00    6.1749816629039023E+00    1.9343980176640422E+01
H    5.0541841411292614E+00    5.5572483708309672E+00    1.9012623682545041E+01
O    3.2834376222318737E+00    8.4877779083672671E+00    1.2660287066056373E+01
H    2.6438138252203753E+00    8.2204178970207309E+00    1.3352214479131799E+01
H    3.8231317826799400E+00    9.1482613396574788E+00    1.3256689882924169E+01
O    7.2302796222155186E+00    3.4106020823602177E+00    1.7438852790893797E+01
H    6.5977800175522203E+00    3.0502115551341249E+00    1.6785341743340368E+01
H    6.7329346754075843E+00    4.1922295028919088E+00    1.7690849329431696E+01
O    9.8531789167628077E+00    1.0402303062874161E+01    2.2189170452002323E+01
H    1.0104022947323907E+01    9.6848923629974255E+00    2.2791856923648513E+01
H    9.0270003265257674E+00    5.0712753537690536E-01    2.2625112224192669E+01
O    3.7526615747959937E+00    5.8254137626392977E+00    1.8384331384301252E+01
H    3.0192479451769474E+00    5.1240833032264179E+00    1.8553074591939030E+01
H    3.3136004330329323E+00    6.6308677358004067E+00    1.8743075301853953E+01
O    5.3613624711755667E+00    3.9614188851348113E+00    1.1610828751508359E+01
H    4.5286279057141794E+00    3.4664246278785225E+00    1.1752753777355538E+01
H    5.4410070918568003E+00    4.2801565384549560E+00    1.2558362128443743E+01
O    9.6579338435546813E-01    9.6355812973333084E+00    1.5542495710235873E+01
H    1.1454894349395950E+00    8.7597093294390511E+00    1.5023222773647600E+01
H    1.3140490965332128E+00    9.6418521012689133E+00    1.6475235379688119E+01
O    6.4450835364767398E+00    1.4691524844335710E+00    1.0533846498060960E+01
H    6.2096417751201347E+00    2.1998122759953191E+00    1.1129265081742846E+01
H    7.3519606087424529E+00    1.6826926475505013E+00    1.0205730900665190E+01
O    4.7512712122284588E+00    9.8123162460444266E+00    1.9641461253040436E+01
H    4.8349362102585518E+00    1.0752553096498071E+01    1.9920954312567595E+01
H    5.4433762042814982E+00    9.6577971656725659E+00    1.8914717708994736E+01
O    1.8667261772329560E+00    6.5066024274379810E+00    1.0830404886992845E+01
H    2.3042166334094429E+00    5.6509163116328507E+00    1.0546295672659680E+01
H    2.6044648769250678E+00    6.9715929931135703E+00    1.1225187730842546E+01
C    6.1217521030004898E+00    4.3090205482226462E+00    6.5189969218596602E+00
O    4.8483756831417626E+00    4.2257050026052284E-01    1.3908950905610492E+01
H    5.4328876511054061E+00    1.0349630680398034E+01    1.3183157218713413E+01
H    4.1577627090368523E+00    9.3753898566489935E-01    1.3413290664457795E+01
O    8.7221040771818199E+00    9.5018050529440945E+00    1.2595680456242466E+01
H    8.8343061259237032E+00    9.1013555009866671E+00    1.3534392651066565E+01
H    8.8817362292955124E+00    1.0498925049557576E+01    1.2605880708751235E+01
O    2.1373604733763769E+00    1.7359032815188959E+00    2.1997884114518879E+01
H    2.1777961087034878E+00    2.3261782801432656E+00    2.2796330360000500E+01
H    1.1655318091661317E+00    1.5399661465081989E+00    2.1758244906811374E+01
O    8.9883687470432552E+00    7.0340422759475523E+00    2.2246386644637351E+01
H    8.8508873917722024E+00    7.1071064349031543E+00    2.3231254919700696E+01
H    8.0594804700251004E+00    7.1864926293956941E+00    2.1937656028091592E+01
O    1.1516748684228505E+01    1.6813267465255792E+00    1.4348236588040594E+01
H    1.4270197025268119E+00    2.4967216919755049E+00    1.4958372434350347E+01
H    1.1609876804861031E+01    8.0542592287341641E-01    1.4791839834554501E+01
O    8.4857239935850259E+00    4.3413765538943903E+00    1.4061644647981282E+01
H    8.5511851583685150E+00    3.3893249498517788E+00    1.3798502679514767E+01
H    7.4156910922065107E+00    4.4691920139798587E+00    1.4113059944526942E+01
O    1.8499712544305766E+00    3.7282407814730956E+00    1.6053378616873985E+01
H    9.8031332475487587E-01    3.8925170527135480E+00    1.6536101666488321E+01
H    2.3948475421262780E+00    3.4357902071118733E+00    1.6863656660219814E+01
O    2.6687406855464362E+00    5.4316670498944335E+00    2.2331908019079570E+01
H    2.2772608630946167E+00    5.1350382117412074E+00    2.3191118762252437E+01
H    3.6001776702219632E+00    5.5219948530066905E+00    2.2326937321036500E+01
O    1.8830696142633185E+00    4.4196406722773220E+00    1.9989751778321946E+01
H    2.2009181060393068E+00    4.5344098532082402E+00    2.0984575341760582E+01
H    1.1810076905016114E+00    5.1675121047194565E+00    1.9779743859541647E+01
O    2.7094644170152069E+00    1.0260511044467535E+01    1.0510776136240443E+01
H    3.4115536068844832E+00    9.7828754895709444E+00    1.0069031774166163E+01
H    2.4731039365900638E+00    9.6115945304631865E+00    1.1223352749047518E+01
O    3.3668654046708300E+00    2.2089948138079047E+00    1.7832174080005537E+01
H    2.8631216037520408E+00    1.3395955518135025E+00    1.7826652113424046E+01
H    3.6944950408509873E+00    2.3157724004111957E+00    1.8749811486858427E+01
K    2.4366445684629601E+00    8.2528615539835002E+00    7.5308175856067914E+00
O    6.1546393492789475E+00    9.4848530612643671E+00    1.1859871938414946E+01
H    7.0978410570347092E+00    9.2718955023618310E+00    1.2233565615020066E+01
H    6.3405567168923795E+00    9.7326971228992240E-02    1.1247056298238856E+01
O    4.6554149009640025E+00    8.3460004219679895E+00    9.8681501488528482E+00
H    5.0749363632208144E+00    8.7109830227210878E+00    1.0669819852267667E+01
H    4.8543770938437669E+00    7.3236243015053688E+00    9.8827167496007799E+00
O    8.5222291125712299E+00    7.9962795398413880E+00    1.4802386270708789E+01
H    7.6717953037544380E+00    7.5200731384935846E+00    1.4631992183648856E+01
H    8.4882007183389145E+00    8.3885305509316037E+00    1.5691162893379513E+01
O    4.5421547121282018E+00    7.3466154707652080E+00    6.2300005771616629E+00
H    5.2719698815988680E+00    7.7145108527826034E+00    6.7158982831099632E+00
H    4.7126900179175752E+00    6.3835159750968975E+00    6.3766289099228119E+00
O   -3.1134311691448030E-01    5.9950249267232607E+00    1.2559208432828385E+01
H    6.0023575415544494E-01    5.7383683607494067E+00    1.2323227526203176E+01
H   -6.9144736053498446E-01    5.3163769102930427E+00    1.3203905209333600E+01
O    6.2559289359666090E+00    8.8974772134719711E+00    2.2168687158526708E+01
H    5.6618574639528703E+00    9.1392599037309843E+00    2.1417670400122379E+01
H    5.6381581868662192E+00    8.4666390158585934E+00    2.2802949023584162E+01
O    8.7809697371449467E+00    1.0026913502662380E+01    1.6658294192646220E+01
H    9.6019756789422566E+00    9.9324162637351190E+00    1.6061303455489895E+01
H    9.1039667775650432E+00    9.8277887097707843E+00    1.7551821995524065E+01
O    7.8956847073447722E+00    1.9836835131974293E+00    1.9906026261954555E+01
H    7.5968545999448871E+00    2.4399308878585968E+00    2.0717132524015597E+01
H    7.5143773426078049E+00    2.4858542068060143E+00    1.9086249170989284E+01
O    8.9548329833501690E+00    2.6531067714317191E+00    1.0479383645696286E+01
H    9.7495681173822817E+00    2.2517287114325142E+00    1.0090566665503774E+01
H    8.8540536810862438E+00    3.6057794818468012E+00    1.0164007240317781E+01
O    9.6646726383933270E+00    3.9569649384353185E+00    2.2269995064122870E+01
H    1.0200753727783166E+01    3.4519605723336371E+00    2.2941173657312401E+01
H    9.6392233474850233E+00    4.9778531928246004E+00    2.2459094110230147E+01
O    5.6937156363353640E+00    5.8921859771926819E+00    9.8983995937306073E+00
H    5.4370170200579455E+00    5.7074532115212575E+00    8.9767919121024153E+00
H    5.4400990806240115E+00    5.0516008806986248E+00    1.0500873328681493E+01
O    8.6084105542641076E+00    5.2327518494823062E+00    1.0090967533659352E+01
H    7.6745559406361625E+00    5.4809882579364428E+00    1.0283683617952454E+01
H    8.9828651020915160E+00    5.5108142406637679E+00    1.0972056279577629E+01
O    9.2091071544274712E+00    1.9961775298711975E+00    1.3059729053255303E+01
H    9.1469908613809388E+00    2.3369442937527132E+00    1.2111693240694361E+01
H    1.0137783857261896E+01    1.7764809062938121E+00    1.3342048102233276E+01
O    5.3159054722224290E+00    2.4116034602859933E+00    1.5782196484810546E+01
H    5.2202450161498994E+00    1.5302526482070919E+00    1.5242503481962100E+01
H    4.5372235689256923E+00    2.4584862347003220E+00    1.6417154010404126E+01
O    5.8300305953112206E+00    4.6240680037746946E+00    1.4024843604916384E+01
H    5.2679491293985219E+00    3.9407320927359382E+00    1.4622868526547126E+01
H    5.5050484241047384E+00    5.5650684142338278E+00    1.4199007807955597E+01
O    8.4567075998269701E+00    9.6921186980727487E+00    2.0020495315751912E+01
H    8.1136739399802948E+00    1.0558545914286737E+01    1.9695288978151705E+01
H    9.1983735784060627E+00    9.8816849797803457E+00    2.0641588142276674E+01
O    5.4066883648994644E+00    5.2868975725792557E+00    2.1941717107040304E+01
H    5.7562506925421610E+00    5.3221030928724771E+00    2.0927638900226704E+01
H    5.8906982666001868E+00    6.0307794001512258E+00    2.2322950738412015E+01
O    1.0172189627689102E+01    8.6918350909302031E+00    1.0403574510495659E+01
H    1.0653734714472321E+01    7.8464809310829651E+00    1.0600118946059249E+01
H    9.6467140153045854E+00    9.0273185357297816E+00    1.1143866946462289E+01
O    9.5049520967632191E+00    4.5282472060149646E+00    1.6580787665571442E+01
H    9.2928215943906469E+00    4.3944378670851414E+00    1.5609249005218263E+01
H    8.7631705585648128E+00    4.0647069881496662E+00    1.7102769074415367E+01
O    2.5751932178873025E+00    3.9809842102452433E+00    9.6116487372466484E+00
H    1.8803208306088768E+00    3.2808713266070599E+00    9.5776329123079673E+00
H    3.3931403628699108E+00    3.5744686750249031E+00    9.3462890864498576E+00
O    6.8235036611124054E+00    6.8211354830272519E-01    6.9137553798580562E+00
H    6.6742802482733481E+00    2.9056885454468218E-01    5.9957917056454910E+00
H    6.4570559291122889E+00    1.6017516644461538E+00    6.8480107150572787E+00
O    7.7411369304989446E+00    7.4006446801460086E+00    1.8992049861862490E+01
H    8.5829254303571112E+00    7.0406268738920996E+00    1.8579939117105379E+01
H    8.0096718067466881E+00    8.0649167658907945E+00    1.9704126187223530E+01
O    4.9611368405133061E-01    2.2080581271309176E+00    1.9174059358875876E+01
H    8.6880101360463702E-01    3.0210531618347765E+00    1.9631028812776432E+01
H    9.7844661106066670E+00    2.1766662965206192E+00    1.9515833831146431E+01
O    4.6265408468607019E+00    2.6400372012490867E+00    8.6017643659503591E+00
H    4.7694021991684670E+00    3.5349088893616067E+00    8.1769840905158127E+00
H    5.4384446823572468E+00    2.4387259083375685E+00    9.1453136607160204E+00
O    3.7163554029883894E+00    5.6858354197427463E-01    6.9056032488455852E+00
H    4.1113100803944169E+00    1.3546705739647025E+00    7.3700921312552996E+00
H    4.1823640878782156E+00    4.9022836625096161E-01    6.0345744403585790E+00
O    3.5607973681171936E+00    9.0560107712136055E+00    2.2823813282633193E+01
H    3.1691490656042225E+00    9.9277976545990967E+00    2.2711373695835942E+01
H    2.7899348590382473E+00    8.4975970485954004E+00    2.2507110685762544E+01
O    5.6410789281979268E+00    7.4231224620737040E+00    1.4511190936328292E+01
H    4.8535521046656811E+00    7.4223442055602105E+00    1.5142834291507260E+01
H    5.2407008612617325E+00    7.5681276024562347E+00    1.3604945416850265E+01
K    9.0330985560082375E+00    4.6492237461858004E+00    7.3251431542002727E+00
O    3.0983856291870908E+00    2.1418126515297806E+00    1.2185431456488757E+01
H    2.5193774387898289E+00    2.1433381875377089E+00    1.3006082987887371E+01
H    3.0716570751698593E+00    1.3224564901914293E+00    1.1685468193823546E+01
O    6.3204135402386044E+00    9.0705020186904548E+00    1.7591912705463045E+01
H    6.8314151857049765E+00    9.7657805853778736E+00    1.7111384016263425E+01
H    6.9623464147003826E+00    8.4963513813830165E+00    1.8106210262057004E+01
O    1.3390126526830968E+00    7.5720975960101349E+00    2.1760770587477992E+01
H    3.9494527722492323E-01    7.4339215179387850E+00    2.1886225149347137E+01
H    1.8570723518553438E+00    6.6408092038535651E+00    2.1848488605298421E+01
O    4.0728621716885236E+00    8.4687285399970840E+00    1.6394070470308122E+01
H    4.0966355401176058E+00    9.3094173454122320E+00    1.5945048623587633E+01
H    4.8917641748207625E+00    8.6543794042516797E+00    1.6930239339043315E+01
O    8.8824876003762876E-01    1.8549756979970073E+00    9.3639443614416571E+00
H    1.0716412699304305E+01    1.5536930024631577E+00    8.4510237773771824E+00
H    1.4073529614439699E+00    1.0376638231967381E+00    9.6860588612210847E+00
O    1.3074156377531729E+00    7.4448793346802242E+00    1.4076021015452257E+01
H    1.6443723408128275E+00    6.7375765677909678E+00    1.4633770307469256E+01
H    1.0754261373726823E+01    7.0057660363992351E+00    1.3520416630449326E+01
O    1.0023474510329100E+01    8.9425611969292014E+00    7.8078153285864325E+00
H    9.9125096432811617E+00    9.9058259217205666E+00    7.7903614889264743E+00
H    9.9553650975724874E+00    8.6999748535498966E+00    8.8630924577417520E+00
O    8.2698916427182407E+00    7.1721398731002299E+00    6.5212538032539547E+00
H    7.5018463354414857E+00    7.5859926610916304E+00    7.0565010706118283E+00
H    8.9354925877687226E+00    7.8646909807631085E+00    6.7310278680795061E+00
O    2.5224841014978026E+00    8.2696058256767326E+00    1.9416418419423849E+01
H    3.2352594830190444E+00    8.8954458807294294E+00    1.9744508909534776E+01
H    2.0902490441439512E+00    8.0011633922039156E+00    2.0276501728408899E+01
O    7.1225177965659165E+00    3.2754071414414634E+00    2.2115519674147222E+01
O    4.2273065654610642E+00    2.2175933572935040E+00    2.0295920202257562E+01
H    4.6437465193991976E+00    3.0356878628674817E+00    2.0589378726268258E+01
H    3.4975340089623552E+00    1.9917547378981699E+00    2.0968607017765997E+01
O    5.4159275071292825E+00    5.0191470621934409E+00    7.2747393891971859E+00
O    6.8531215987791487E+00    3.3159525938651262E+00    6.6206452163968397E+00
H    6.3287842488295869E+00    3.9454799063306041E+00    2.2340606088251523E+01
H    7.8531906869234955E+00    3.7269481616308813E+00    2.2584148171663657E+01
     &END COORD
     &VELOCITY
           5.7734960944780196E-05    5.8433852020352384E-05    2.9645538430335024E-05
          -8.3920674339227913E-05   -1.8213771646610514E-05    3.3210046479304267E-05
          -9.6436045979265679E-05   -2.1739501893318280E-05    2.0957005933587366E-04
          -2.5912673047060104E-04    4.6806880425791299E-05    2.8795774335812292E-05
          -6.1792379401568885E-05    1.0797920366839358E-04    8.3717116135546856E-05
           8.7582904539378853E-05   -2.1947890389898447E-05    3.3975716248152432E-06
          -3.8100080588945596E-05   -2.3166444361199850E-06    3.8777404624617725E-05
          -6.9453615536682267E-05   -3.0606773040058979E-05    1.0318032371746014E-05
           9.5095449442297761E-05    1.2541402569906234E-05    5.6645967610891799E-05
           4.3587770557255306E-05   -1.6200141747862591E-04   -5.4738499631775321E-05
           1.5263374297693369E-04   -1.2424884066292963E-04    5.8972756080071121E-05
           1.2373104419760364E-04   -6.7572002010785391E-06   -5.8154122801576077E-05
          -7.9705212380204918E-05   -9.4703522432883390E-05   -2.3234358759404500E-06
           7.6966193180536110E-05   -1.9958310338273191E-05   -2.0420548905814564E-05
           1.2776019946884960E-04   -6.9764123352301455E-05   -3.5192491381110502E-05
           4.2400606542945380E-05    1.1818508554452984E-04    8.6715582471831224E-05
           1.9674958775465811E-05   -7.5509362724773948E-05    9.2371284958373941E-05
           4.9320432762661490E-05    6.0992503403886964E-05   -7.9401871407142876E-05
           8.3158515873967939E-05   -3.5014431225699850E-05   -5.1818367206596216E-05
           1.0890000659887850E-04   -1.2133146181907386E-04    7.6181326459200975E-05
           1.1359470096249567E-04   -6.7413987653047237E-05   -2.3022958945236502E-04
           9.4009849749836672E-05    9.7008736205989648E-05   -9.8580705136775313E-05
          -5.6717922260419237E-05   -1.8254675315888255E-04    2.6511089988854283E-05
          -7.6037661578513480E-05    2.5352063016005551E-05    2.2386793125996650E-05
          -6.8583469785629415E-05   -1.5007991464644187E-05   -6.2931232340473478E-05
          -6.1895653691804647E-06    1.1327210322717008E-04   -7.2837434050993411E-05
          -4.1552733358218686E-05    1.7635308333716343E-05   -9.8764096544654397E-05
          -5.0058676478689489E-06   -6.0138427056111610E-05   -2.1747760013044812E-05
          -1.8176771231895455E-05    2.5910059850841603E-05    1.3307007705727001E-04
          -2.5663189586454779E-05   -3.6271864275648839E-06   -3.9186901011457759E-05
          -5.3594054196001970E-05   -1.4280054087782932E-05    9.8206236587767241E-05
          -6.8207960746167158E-05    6.9936754617021013E-05    4.3323236980114233E-06