 # Version information for this restart file 
 # current date 2026-03-03 15:19:01.180
 # current working dir /home/shaofl/projects/03_CuAg_SAA/explicit/single-side/co2/2k/ad_stru/desorb
 # Program compiled at                              Wed Jun 16 17:08:34 CST 2021
 # Program compiled on                                                       mgr
 # Program compiled for                                       Linux-x86-64-intel
 # Source code revision number                                       git:e635599
 &GLOBAL
   PRINT_LEVEL  LOW
   PROJECT_NAME slowgrowth
   RUN_TYPE  MD
 &END GLOBAL
 &MOTION
   &MD
     ENSEMBLE  NVT
     STEPS  6000
     TIMESTEP     9.9999999999999989E-01
     STEP_START_VAL  4000
     TIME_START_VAL     3.9999999999997026E+03
     ECONS_START_VAL    -4.3015317591289058E+03
     TEMPERATURE     3.0014999999999998E+02
     &THERMOSTAT
       TYPE  NOSE
       REGION  GLOBAL
       &NOSE
         LENGTH  3
         TIMECON     2.2237606346543473E+01
         &COORD
              -9.4709175886778917E-03    1.0321130288439489E+01    1.6864883235808172E+01
         &END COORD
         &VELOCITY
               3.4327038083751585E-05    3.4258413737914376E-04    9.9315426744681318E-04
         &END VELOCITY
         &MASS
               6.4750332819943212E+05    8.0335400521021347E+02    8.0335400521021347E+02
         &END MASS
         &FORCE
               4.4462097697809101E-08   -2.3344249585997347E-07   -1.0658251128204468E-06
         &END FORCE
       &END NOSE
     &END THERMOSTAT
     &AVERAGES  T
       &RESTART_AVERAGES
         ITIMES_START  1
         AVECPU     2.4126460767501985E+01
         AVEHUGONIOT     0.0000000000000000E+00
         AVETEMP_BARO     0.0000000000000000E+00
         AVEPOT    -4.3018575244102403E+03
         AVEKIN     3.8333090459348518E-01
         AVETEMP     3.0036273307276542E+02
         AVEKIN_QM     0.0000000000000000E+00
         AVETEMP_QM     0.0000000000000000E+00
         AVEVOL     1.8637835790266090E+04
         AVECELL_A     1.9320371010009655E+01
         AVECELL_B     1.9320371010009655E+01
         AVECELL_C     4.9930343883104662E+01
         AVEALPHA     9.0000000000000000E+01
         AVEBETA     9.0000000000000000E+01
         AVEGAMMA     9.0000000000000000E+01
         AVE_ECONS     8.9797833439259236E+01
         AVE_PRESS     0.0000000000000000E+00
         AVE_PXX     0.0000000000000000E+00
       &END RESTART_AVERAGES
     &END AVERAGES
     &PRINT
       &ENERGY  SILENT
       &END ENERGY
     &END PRINT
   &END MD
   &CONSTRAINT
     &COLLECTIVE
       COLVAR  1
       INTERMOLECULAR  T
       TARGET     2.8362298476608219E+00
       TARGET_GROWTH     4.2217495722394033E-06
     &END COLLECTIVE
     &LAGRANGE_MULTIPLIERS  SILENT
       COMMON_ITERATION_LEVELS  1
       FILENAME constraint_force.dat
     &END LAGRANGE_MULTIPLIERS
   &END CONSTRAINT
   &PRINT
     &TRAJECTORY  SILENT
       &EACH
         MD  5
       &END EACH
     &END TRAJECTORY
     &VELOCITIES  SILENT
       &EACH
         MD  5
       &END EACH
     &END VELOCITIES
     &RESTART  SILENT
       &EACH
         MD  10
       &END EACH
     &END RESTART
   &END PRINT
 &END MOTION
 &FORCE_EVAL
   METHOD  QS
   &DFT
     BASIS_SET_FILE_NAME BASIS_MOLOPT
     POTENTIAL_FILE_NAME GTH_POTENTIALS
     WFN_RESTART_FILE_NAME ./1-RESTART.wfn
     UKS  T
     CHARGE  0
     &SCF
       MAX_SCF  60
       EPS_SCF     1.0000000000000001E-05
       SCF_GUESS  ATOMIC
       &OT  T
         MINIMIZER  BROYDEN
         BROYDEN_BETA     9.0000000000000002E-01
         BROYDEN_SIGMA     1.0000000000000001E-01
         LINESEARCH  2PNT
         PRECONDITIONER  FULL_ALL
       &END OT
       &OUTER_SCF  T
         EPS_SCF     1.0000000000000001E-05
         MAX_SCF  50
       &END OUTER_SCF
       &PRINT
         &RESTART_HISTORY  SILENT
           ADD_LAST  NUMERIC
           FILENAME = MD_RESTART_HISTORY.wfn
           BACKUP_COPIES  5
           &EACH
           &END EACH
         &END RESTART_HISTORY
       &END PRINT
     &END SCF
     &QS
       EPS_DEFAULT     9.9999999999999998E-13
       EPS_PGF_ORB     9.9999999999999995E-07
       EXTRAPOLATION  ASPC
       EXTRAPOLATION_ORDER  2
     &END QS
     &MGRID
       NGRIDS  5
       CUTOFF     4.5000000000000000E+02
       REL_CUTOFF     6.0000000000000000E+01
     &END MGRID
     &XC
       DENSITY_CUTOFF     1.0000000000000000E-10
       GRADIENT_CUTOFF     1.0000000000000000E-10
       TAU_CUTOFF     1.0000000000000000E-10
       &XC_GRID
         XC_SMOOTH_RHO  NN10
         XC_DERIV  NN10_SMOOTH
       &END XC_GRID
       &XC_FUNCTIONAL  NO_SHORTCUT
         &PBE  T
         &END PBE
       &END XC_FUNCTIONAL
       &VDW_POTENTIAL
         POTENTIAL_TYPE  PAIR_POTENTIAL
         &PAIR_POTENTIAL
           R_CUTOFF     1.0000000000000002E+01
           TYPE  DFTD3
           PARAMETER_FILE_NAME dftd3.dat
           REFERENCE_FUNCTIONAL PBE
         &END PAIR_POTENTIAL
       &END VDW_POTENTIAL
     &END XC
     &PRINT
       &MULLIKEN  SILENT
         FILENAME =CHARGE.mulliken
         &EACH
           MD  5
         &END EACH
       &END MULLIKEN
     &END PRINT
   &END DFT
   &SUBSYS
     &CELL
       A     1.0223900000000002E+01    0.0000000000000000E+00    0.0000000000000000E+00
       B     0.0000000000000000E+00    1.0223900000000002E+01    0.0000000000000000E+00
       C     0.0000000000000000E+00    0.0000000000000000E+00    2.6422000000000001E+01
       PERIODIC  XYZ
       MULTIPLE_UNIT_CELL  1 1 1
     &END CELL
     &COORD
Cu    4.5998920235567919E-01    9.7347382971521110E+00    3.3179718347172821E-01
Cu    3.3177447641940025E+00    1.9825768085158790E+00    1.6103695206005353E-01
Cu    5.4226779555791182E-01    9.5531286682294017E+00    3.8471293487302982E+00
Cu    3.1315225642152273E+00    1.9740218437681207E+00    3.8001493952182979E+00
Cu    3.0687221828652875E+00    9.6805870506398328E+00    1.7794701612896124E-01
Cu    5.9965261931452019E-01    2.0628873220954129E+00    3.2773381425371317E-01
Cu    3.2154306145624720E+00    9.6339430958823851E+00    3.8363185959686832E+00
Cu    5.7279592697087567E-01    1.8474731724840081E+00    3.7249109928598818E+00
Cu    4.3226787449809008E+00    5.3322643522965552E-01    2.4840047709267964E+01
Cu    1.8959184945126786E+00    3.2736198078419587E+00    2.4954996545360952E+01
Cu    4.4981333434906148E+00    7.4680933083140477E-01    2.0899342835397938E+00
Cu    1.9782570544066540E+00    3.2581441272758092E+00    1.8666098056243292E+00
Cu    1.7927101961058642E+00    8.0769460073574240E-01    2.5024048762306638E+01
Ag    4.6618618138955448E+00    3.3597736206264592E+00    2.4657217356104983E+01
Cu    1.8742584493513310E+00    6.8306476927568305E-01    2.0412725524284228E+00
Cu    4.5005009149652206E+00    3.2159973705077602E+00    2.0908389946781214E+00
Cu    5.5920085473541228E+00    9.6792626798047081E+00    1.4642596788456480E-01
Cu    8.3487454562774879E+00    1.8935742172033216E+00    2.3208452329537655E-02
Cu    5.6837964295755388E+00    9.7708898063713114E+00    3.6831166808798641E+00
Cu    8.2049599202816541E+00    1.9703946522418856E+00    3.7873794741631537E+00
Cu    8.1629405513572806E+00    9.6827842446483086E+00    1.8685468209457307E-01
Cu    5.7845822963829496E+00    2.0326410554862950E+00    1.6892059877595847E-01
Cu    8.2973416537707099E+00    9.6283438402455435E+00    3.7815737151067714E+00
Cu    5.7960314660393477E+00    1.9539273923578471E+00    3.7267937905598529E+00
Cu    9.5229998252149279E+00    7.5971493654934985E-01    2.4651645523962095E+01
Cu    7.2879277143953072E+00    3.4718178509286810E+00    2.4674261515937641E+01
Cu    9.4926450480284625E+00    6.2933946027188559E-01    2.0813896457333794E+00
Cu    7.0985222075486689E+00    3.1927522642685204E+00    1.8524582284556104E+00
Cu    6.9208574852262439E+00    7.8192317115366539E-01    2.4660948065181945E+01
Cu    9.7599973521259891E+00    3.3152784420477364E+00    2.4918228264194145E+01
Cu    7.0332469683005527E+00    7.3643473863262277E-01    1.9737951168960957E+00
Cu    9.5281590550794864E+00    3.2452389446419665E+00    1.9328763265244622E+00
Cu    6.4752305479926353E-01    4.6275463658060199E+00    2.5483014572969565E-01
Cu    3.0843513604712540E+00    7.2927974205907509E+00    2.5990794048494276E-01
Cu    5.7963727061758685E-01    4.3741841773747101E+00    3.7231309516254294E+00
Cu    3.2548770234360815E+00    7.0523645851768366E+00    3.7845088495563570E+00
Cu    3.2587811277306340E+00    4.5549933311324073E+00    2.9182542470228073E-01
Cu    5.9667157250468816E-01    7.0399471411171213E+00    1.1728616946156915E-01
Cu    3.0953006436449013E+00    4.4724956286036130E+00    3.6973065461483365E+00
Cu    6.5985105131123223E-01    6.9398735285265785E+00    3.8500674229795351E+00
Cu    4.3841421036336250E+00    6.0695754157467157E+00    2.4922666660183527E+01
Cu    1.8413616384339684E+00    8.4823778231542253E+00    2.4761471801220498E+01
Cu    4.5314392065496927E+00    5.8634579644421549E+00    2.0228207474691917E+00
Cu    1.8144780881764111E+00    8.3882721604206107E+00    2.1304873744525419E+00
Cu    1.9117021333256730E+00    5.8165088595032426E+00    2.4805260748990797E+01
Cu    4.3707731867288837E+00    8.3899404287177539E+00    2.4843941276600880E+01
Cu    1.8776985410697151E+00    5.8206797811399262E+00    2.0081953752372081E+00
Cu    4.3915367425869016E+00    8.4994270826493619E+00    2.1478963353759104E+00
Cu    5.6801465323651277E+00    4.5874987792184454E+00    3.0425172216057045E-01
Cu    8.2925521473673403E+00    7.1856368106283988E+00    3.0404385634799785E-01
Ag    5.8497536485460166E+00    4.6505146585795583E+00    4.0606870311560916E+00
Cu    8.2602063746799690E+00    7.0845270717257725E+00    3.8804951046831957E+00
Cu    8.2467676919433508E+00    4.7139492664733744E+00    1.9859961109309737E-01
Cu    5.6754939000567779E+00    7.0975494411759765E+00    3.3105707620227992E-01
Cu    8.3251020719909530E+00    4.4993056652988015E+00    3.7808941740376749E+00
Cu    5.7631682750126796E+00    7.1392780368327360E+00    3.8598394118769059E+00
Cu    9.3579322093815946E+00    5.7604517002674349E+00    2.4830879535844897E+01
Cu    6.8236132325959655E+00    8.4327578340429259E+00    2.4973139151902384E+01
Cu    9.6512881005511524E+00    5.8506427654679207E+00    2.0618609071730352E+00
Cu    6.8395798213600569E+00    8.3605278129749347E+00    2.1636472803937350E+00
Cu    6.7584865233409843E+00    5.9332614847779865E+00    2.4866735274904869E+01
Cu    9.4858347774447758E+00    8.4898507780969297E+00    2.4979060777587399E+01
Cu    7.1301721769898228E+00    5.8209398235927612E+00    2.0597632120183698E+00
Cu    9.5746633900807137E+00    8.2609057556039733E+00    2.0841511428070389E+00
O    8.6897185359260600E+00    8.3700201687420617E-01    6.4829906458795641E+00
H    7.6886764289547109E+00    5.8778697253882084E-01    6.4547959833449644E+00
H   -1.3344424489620781E+00    8.4761719316028716E-01    5.4833018139627816E+00
O    5.8289987891764845E+00    7.8080321858079751E+00    7.2733577660492834E+00
H    5.5200721979478482E+00    7.9704130590447102E+00    8.1931190157494953E+00
H    5.8996145758470302E+00    8.7202125871444895E+00    6.8969433247772995E+00
O   -9.8461542070196986E-02    1.0264648015205141E+01    1.8390500218400714E+01
H    1.1272922515699675E-01    1.0004745320556456E+00    1.8646440238447564E+01
H    5.4826626202200401E-01    9.6287451782676996E+00    1.8820939202793980E+01
O    1.9424334502996701E+00    3.1244391234869622E+00    7.2471818007202522E+00
H    1.7401245281204074E+00    2.2046311661680367E+00    6.9746317167628167E+00
H    2.1949720891320377E+00    3.6540399963585424E+00    6.4220858577850715E+00
O    1.7275760684268540E+00    6.0488675188312602E+00    7.0924293150495172E+00
H    2.6940063888364412E+00    5.8320839525234272E+00    7.1297951507558279E+00
H    1.6026028612796119E+00    5.9373779220371636E+00    6.0978979989701596E+00
O    1.9998129330251619E+00    5.8691334838354976E+00    1.4864245767903368E+01
H    1.7068272815476244E+00    4.8598383485290970E+00    1.5028124293149542E+01
H    2.5407275914469234E+00    6.0273941034460767E+00    1.5671204342546970E+01
O    9.4540747077124241E+00    6.9001451002520060E+00    1.7804695684091747E+01
H    9.3732154766383626E+00    6.4051599360532236E+00    1.6937119652091326E+01
H   -5.0900031113913030E-02    7.5526517037485492E+00    1.7607495903302961E+01
O    6.5678309705089104E+00    6.2492353175229154E-01    2.2247450347712128E+01
H    5.6116757936237454E+00    4.3471695769444219E-01    2.2231088385608327E+01
H    6.6852970828150404E+00    1.5365033269489961E+00    2.1854348657686383E+01
O    5.3297749709097859E+00    5.3012218218127156E+00    1.8511191356129689E+01
H    5.9442048040861630E+00    6.0580996107274210E+00    1.8764732674408094E+01
H    4.6185014319207314E+00    5.8395925676140168E+00    1.8151756869435559E+01
O    2.8411637511815440E+00    8.3692009843951105E+00    1.3399997670598864E+01
H    2.1335692190255977E+00    7.8558014083811800E+00    1.3888610223182670E+01
H    2.6891403959753784E+00    9.3519326323264167E+00    1.3597709062142734E+01
O    6.7481124176270804E+00    3.8579709735266876E+00    1.6911371504902750E+01
H    5.9711616637611442E+00    3.2455237982719458E+00    1.6580545259809117E+01
H    6.2881439117453946E+00    4.6147821710737889E+00    1.7307639081989819E+01
O    1.0503497911683633E+01    1.1715570104208066E+01    2.1807755165547448E+01
H    1.0209584054075570E+01    1.2236748139756052E+01    2.2619595994113293E+01
H    9.9898234749015007E+00    1.9500024834085710E+00    2.1075506043971398E+01
O    3.1657863221932474E+00    6.5194122300977257E+00    1.7322988339478709E+01
H    2.3669835003678887E+00    6.3021164855332730E+00    1.7790423712539862E+01
H    3.0982255496575970E+00    7.5199665502959210E+00    1.7252842377549189E+01
O    3.8316176024955233E+00    3.0633073994487723E+00    1.1358924031901157E+01
H    2.8448861953879208E+00    2.6704021115309424E+00    1.1408613531565480E+01
H    4.0977744696533600E+00    3.5760518172861553E+00    1.2185863275342998E+01
O    1.0063735586448632E+00    9.8163831476976640E+00    1.5752971985067054E+01
H    7.9757173020114402E-01    8.8223107553423947E+00    1.5474834328640174E+01
H    4.5041657050259670E-01    1.0129958797367944E+01    1.6452273765741513E+01
O    5.4854611153758075E+00    1.5311652255331802E+00    1.0411527339484575E+01
H    4.7814057385215980E+00    2.1793251237555058E+00    1.0898024105500346E+01
H    6.4289021664681627E+00    1.8900565931574167E+00    1.0478558663658022E+01
O    3.3267661472639478E+00    1.0219928798499604E+01    1.9458245437986704E+01
H    3.3726506535172409E+00    1.0553713511395413E+01    2.0363059506032403E+01
H    4.2414325038721055E+00    1.0337860195066614E+01    1.9007286654281835E+01
O    1.5682908974866387E+00    6.7231669559193605E+00    1.1006058054302054E+01
H    1.6836098573236034E+00    5.8049278638273449E+00    1.0583371874554006E+01
H    2.2244784999126739E+00    6.7738936547563622E+00    1.1750031491479886E+01
C    6.1670583457160415E+00    3.4808433879403426E+00    6.7266382828706366E+00
O    3.6755516556733778E+00    8.8555330862237414E-01    1.3661940730202176E+01
H    4.3074771239939293E+00    1.0716992363299834E+01    1.2969792539919828E+01
H    3.0730504996383279E+00    1.4347119405405682E+00    1.3142006602303901E+01
O    7.7741455367471781E+00    9.9966111698810902E+00    1.2198347331799868E+01
H    7.8981872626689258E+00    9.3725240118215343E+00    1.2961739983307659E+01
H    7.5728745755307632E+00    1.0905106384143760E+01    1.2624414810345282E+01
O    2.6419544213161705E+00    2.7119703924236553E+00    2.1767499244153701E+01
H    2.7554060272872061E+00    3.3898132844283579E+00    2.2498336894955777E+01
H    1.7198889417856329E+00    2.3563410223359651E+00    2.1960331796546615E+01
O    9.0334876363863188E+00    7.3199522129336723E+00    2.1999997454175581E+01
H    8.4640485088732085E+00    7.2148684351351609E+00    2.2849036491758316E+01
H    8.6326371780780935E+00    8.1727106763204098E+00    2.1619990617174594E+01
O    1.0628167526938855E+01    1.5250357737402287E+00    1.3822807990567972E+01
H    6.2139382211435568E-01    2.3307649110001787E+00    1.4427523491528742E+01
H    1.0989594030972235E+01    7.7961887491554016E-01    1.4431685717090794E+01
O    7.6015428697843817E+00    5.1884104245086933E+00    1.3647777026163720E+01
H    7.6528996094046970E+00    4.2086396693738539E+00    1.3718871351305777E+01
H    6.6255962012422263E+00    5.3716640184655482E+00    1.3656466052802132E+01
O    8.0321031086881445E-01    3.4947886143750351E+00    1.5452636415983861E+01
H   -2.0109153225144883E-02    4.0068638543320798E+00    1.5655612047148873E+01
H    1.2721250343926669E+00    3.2275511286114491E+00    1.6242358812053169E+01
O    2.0279234753578979E+00    5.9920416763123630E+00    2.1213127725798053E+01
H    1.3617837483413782E+00    5.7373990061584470E+00    2.1944099638647781E+01
H    2.8575990690536295E+00    5.6676509840149309E+00    2.1668262338305603E+01
O    6.8189913386367196E-01    4.5827350175766686E+00    1.8596672476332945E+01
H    1.1815950945008804E+00    4.7495928753818060E+00    1.9413983994491044E+01
H   -5.5379070115333037E-02    5.2300649114339715E+00    1.8553761170861126E+01
O    1.6773802325927027E+00    9.4308654402099563E+00    1.0339529211786024E+01
H    2.2398227085520444E+00    8.7922040250047768E+00    1.0812776088024609E+01
H    7.5496710482589979E-01    9.0957454547987560E+00    1.0539806675983403E+01
O    2.4268671985998105E+00    2.3193264645763993E+00    1.7374664215766646E+01
H    2.3042269025661546E+00    1.3670602371942711E+00    1.7498074040231170E+01
H    2.9701058044510140E+00    2.6157410449223413E+00    1.8277396105943058E+01
K    2.5511012658518792E+00    8.3328073656608836E+00    7.8989731044314171E+00
O    5.1679151967051711E+00    9.7034350484640282E+00    1.2062056591306881E+01
H    6.0894587629368102E+00    9.7652129975685860E+00    1.2504718683824136E+01
H    5.2943203984593179E+00    2.0703636251939966E-01    1.1431005054203030E+01
O    4.4630751265385156E+00    7.8412169600231945E+00    1.0026086646593697E+01
H    4.6274312648666811E+00    8.4642157045020063E+00    1.0825151020469942E+01
H    4.6296094445764409E+00    6.9223381338074308E+00    1.0287330811257132E+01
O    7.5834807420115879E+00    8.4234844859870055E+00    1.4425043255742734E+01
H    6.6232022844631340E+00    7.9755861172660554E+00    1.4492978951919111E+01
H    7.6837507225006085E+00    8.9921519248604831E+00    1.5215392863247303E+01
O    4.3690657152122752E+00    5.5340952628565843E+00    7.0783026047915527E+00
H    4.8307602795256122E+00    6.3763519630696246E+00    7.1474247373899793E+00
H    4.5597447957250310E+00    5.3218824191628302E+00    6.1211185173755878E+00
O   -1.1236531655639783E+00    6.4393247746553053E+00    1.1770326614378424E+01
H   -1.3460508741092117E-01    6.2047756378615757E+00    1.1762673363685092E+01
H   -1.5758712619915483E+00    6.2727520620532262E+00    1.2586525981291439E+01
O    5.3049330474699294E+00    8.0211947052394166E+00    2.1538819268600058E+01
H    5.1658468708829393E+00    8.4335669600294150E+00    2.2477727764594189E+01
H    4.5650368988971923E+00    8.4307018253263912E+00    2.1006804508799995E+01
O    8.3039806055987331E+00    9.9699248370683584E+00    1.6396382086994393E+01
H    7.7620381589669565E+00    1.0735336140296392E+01    1.6558000766838035E+01
H    9.0030753766884413E+00    1.0100522946513289E+01    1.7179681079109326E+01
O    7.0577919182629900E+00    2.1297839918917378E+00    1.8944862940326288E+01
H    6.6767734193641903E+00    2.4518963295587337E+00    1.9787075609281576E+01
H    6.8494647882139548E+00    2.7871673145090607E+00    1.8206737254890989E+01
O    8.0889491095963031E+00    2.6061723240763381E+00    1.0539567100072306E+01
H    8.6275434598955805E+00    2.0153077610853543E+00    1.0053942098749197E+01
H    8.1902381342937947E+00    3.5577563658365756E+00    1.0068690401182153E+01
O    8.9824981322939870E+00    4.6997040505097782E+00    2.1550521506603644E+01
H    8.7988986690603248E+00    4.5531268075976641E+00    2.2535555949915146E+01
H    8.9093207545299880E+00    5.6704067777150371E+00    2.1572717256128399E+01
O    5.0713943668883354E+00    5.1164428046905126E+00    9.6572373139546706E+00
H    4.8061744503092694E+00    5.0217583867047502E+00    8.7246587608683122E+00
H    4.4075652961988476E+00    4.5832356363643800E+00    1.0112883370368236E+01
O    7.8126650484476787E+00    5.1781320137269145E+00    9.9376237868516881E+00
H    6.8190593635028023E+00    5.1476382376475058E+00    9.9975346453984901E+00
H    8.1819242154167267E+00    5.7985241872970512E+00    1.0687258072837224E+01
O    8.0172586693437822E+00    2.4312151055179676E+00    1.3175065803375560E+01
H    8.1292426504804034E+00    2.7080963863048071E+00    1.2224474923406323E+01
H    8.9004070137789650E+00    1.9795636344300587E+00    1.3461077110178149E+01
O    4.6034350741550289E+00    2.5772400864688088E+00    1.5667526887449664E+01
H    4.6364616771509981E+00    1.7219531209048398E+00    1.5163560385231799E+01
H    3.8557021295092371E+00    2.5348593639678216E+00    1.6364830028635520E+01
O    4.6703608837809032E+00    4.3293236472643546E+00    1.3441593668322948E+01
H    4.5182322245359083E+00    3.7313535273724585E+00    1.4261486922168350E+01
H    4.1466344961637001E+00    5.1100147741656361E+00    1.3679813640680258E+01
O    7.9694809081081912E+00    9.3267606694787961E+00    2.0610595923918375E+01
H    8.6479823435227647E+00    1.0027096215105329E+01    2.0373938824026052E+01
H    7.4481088580677426E+00    9.8422677370933318E+00    2.1311845794580840E+01
O    4.6530643269253966E+00    5.3251837007836862E+00    2.1969228418175458E+01
H    4.8860423050300117E+00    6.2890708643654776E+00    2.1746861443812875E+01
H    4.9006472669697567E+00    5.1455288930280325E+00    2.2924383924971760E+01
O    9.2522842836781685E+00    8.6908141882636087E+00    1.0395693768517226E+01
H    9.1676911695123753E+00    7.9126804137378315E+00    1.0987268887844635E+01
H    8.7964077428248189E+00    9.4126358879166876E+00    1.0919647725424696E+01
O    9.0049078211858902E+00    4.9703231698562265E+00    1.5991240775349748E+01
H    8.3539377152093088E+00    5.1355860627909973E+00    1.5167783797298215E+01
H    8.2969847556084524E+00    4.5477913992574255E+00    1.6478338381707189E+01
O    1.1462121595022889E+00    4.1834037071131851E+00    9.7539050936970568E+00
H    7.9723872958938546E-01    3.4248677688262021E+00    1.0191131877309294E+01
H    1.4224498808121302E+00    3.9247098365886264E+00    8.8442330900182871E+00
O    6.1686756523252164E+00    1.7497563724478396E-01    6.4605234463332328E+00
H    5.7550847233732778E+00    6.5175820716873767E-01    5.6785298701703919E+00
H    5.4774143940853532E+00    3.2806003282497426E-01    7.1951097042878773E+00
O    6.9119994011922223E+00    7.4474538994368054E+00    1.8777133994089127E+01
H    7.8962934973551198E+00    7.4657453468171084E+00    1.8479862765726828E+01
H    6.8788679675923863E+00    8.1191496143239306E+00    1.9495214405444973E+01
O   -5.8879847396294294E-01    2.3683496824172661E+00    1.9543146289169663E+01
H   -2.3108243519812652E-01    3.2708364002688772E+00    1.9194467520205219E+01
H    8.7329291417811827E+00    2.3998499541868092E+00    1.9603964011579418E+01
O    4.3715743761793036E+00    4.5302567238523472E-01    8.4161497389408595E+00
H    3.6744676738248740E+00    1.1562684395712231E+00    8.2791702510076881E+00
H    4.9179270291055870E+00    7.9579447415959526E-01    9.2003711357752902E+00
O    2.1729646417426665E+00    3.8846949707997364E-01    6.5486705487650161E+00
H    2.8012395770243601E+00    1.6406386394587094E-01    5.7907320271342630E+00
H    1.3995141827560749E+00    4.1020037637665074E-01    5.9308926692259165E+00
O    3.7972137203945477E+00    1.0594388186132885E+01    2.2136179774417219E+01
H    3.3996223960111482E+00    1.1486858481666960E+01    2.2014356174321197E+01
H    3.1480717783583425E+00    9.8824111438320816E+00    2.2386223397256376E+01
O    4.8902891408613325E+00    7.0748784110718406E+00    1.4349551266807101E+01
H    4.6976848599345704E+00    7.0857092297725366E+00    1.5307108473240502E+01
H    4.2810535972260322E+00    7.5961150217199442E+00    1.3809099094698110E+01
K    9.4139261843797577E+00    4.9277571474266155E+00    7.6554523710360955E+00
O    1.4873680361013726E+00    1.6970297419921252E+00    1.1355352413075140E+01
H    9.9955448872135721E-01    1.7756533664122758E+00    1.2242361326105003E+01
H    1.6249539724668078E+00    7.2200337190579011E-01    1.1019291648937303E+01
O    5.5840211832008553E+00    1.0415499869096744E+01    1.8037499504629587E+01
H    6.2578053666471831E+00    1.0968931700981452E+01    1.8616283268219277E+01
H    5.9857257597148186E+00    9.4552566967192639E+00    1.8140904263362845E+01
O    2.0150947370420629E+00    8.7991785165911107E+00    2.2311603099651936E+01
H    1.1144457714905760E+00    9.1645361298145414E+00    2.2383419058845710E+01
H    1.8587565603709899E+00    7.8115826187695738E+00    2.2136225696188212E+01
O    3.5553972607806554E+00    8.8955403618361011E+00    1.6549585965319888E+01
H    2.7652114380501209E+00    9.4060406833697403E+00    1.6352429964739756E+01
H    4.2007207291397943E+00    9.5780634751172311E+00    1.6957269462667998E+01
O   -4.5022055844097242E-01    1.5068257852466580E+00    8.7868675319653420E+00
H    9.3738726868805298E+00    1.1739416933211670E+00    7.9511595214278428E+00
H    1.2631157203650145E-01    7.9927968588548204E-01    9.1518538369263958E+00
O    1.2927097802071830E-01    7.6556682907753579E+00    1.4552945160753863E+01
H    5.6070972507737793E-01    6.7562252791065189E+00    1.4717730179391225E+01
H    9.3722549201167844E+00    7.6689625653796156E+00    1.4563723021121701E+01
O    1.0000432229694454E+01    8.5496718226339290E+00    7.6490438385621511E+00
H    9.5103448721581803E+00    9.1292943681407372E+00    7.0546298028157812E+00
H    9.5842508839002143E+00    8.5420936405886803E+00    8.5808373752427887E+00
O    8.2743989582289981E+00    6.9508577851278774E+00    6.1582661271969714E+00
H    7.4493931864280531E+00    7.3436944899018775E+00    6.4996761215227661E+00
H    9.1181143175006341E+00    7.3580022463884953E+00    6.5529341819615317E+00
O    1.7571067437400745E+00    8.3864285338850753E+00    1.9024358157023290E+01
H    2.4565783563235462E+00    9.0658782242388778E+00    1.9342978647148492E+01
H    1.5820866884067666E+00    7.7340202709614791E+00    1.9817798225728506E+01
O    6.8049103515704470E+00    3.1148435601892777E+00    2.1305104353199461E+01
O    3.8645137436015973E+00    3.2340063907206700E+00    1.9398923823682285E+01
H    4.4225998484285256E+00    4.0302516290922048E+00    1.9278268626468741E+01
H    3.5503809473003498E+00    3.1794813092485690E+00    2.0296364826445210E+01
O    5.1755578222791376E+00    2.8640741664462066E+00    6.8601481530693613E+00
O    7.1278342659983380E+00    4.1401660513054654E+00    6.9485915623420427E+00
H    6.0594630388502679E+00    3.7373120081367723E+00    2.1493772160700114E+01
H    7.5643600055483793E+00    3.7861043812281001E+00    2.1307963851604516E+01
     &END COORD
     &VELOCITY
          -1.4423109708520506E-05   -1.0247856614683956E-04    4.4867670919710375E-05
           5.4625092279566631E-05   -4.7203414754156280E-05    9.8061675149127477E-05
           2.0496483297499559E-04    2.8887979189046811E-05    1.2249299521345346E-04
          -8.4575991111272150E-06   -4.7735091066584865E-05    4.3877481733335067E-05
          -2.3199408957406458E-06   -2.9697806605932197E-05    8.2365804244091329E-05
          -6.3306874397603904E-05    1.1263425635868678E-04   -4.2791847864152189E-05
          -4.5694662276480594E-06   -1.0362064103569373E-04   -3.3248422008743452E-06
           2.4188245778584191E-05    8.7403396225067679E-05   -1.6317087365207147E-05
           1.7526932945463632E-04   -4.7271779577490685E-05   -2.1610008676625998E-05
           8.6130483080340369E-05   -8.9717718237042590E-05   -1.2484463968181748E-04
          -1.2069153538064445E-04   -1.2973215148137087E-04    9.6440982944602331E-05
          -2.3207005371467336E-05    1.7810878553040987E-05    1.8716846209346899E-05
          -3.8472830803257028E-05    1.6276255648115526E-05    6.5561030480848332E-05
          -5.4923458359645277E-06    3.7198317954977551E-05    4.4063744103522937E-06
          -2.3473225385385344E-04   -1.0267297698175588E-04    3.9905185267405480E-05
          -5.6143358942550456E-06   -9.9392110510230571E-06   -2.1702739797181980E-05
           1.1742992141763917E-04    1.9693126252656265E-04    3.8104301441076324E-05
           6.0645366949764651E-06   -1.6070532107431197E-04   -1.1364870327778198E-04
           3.4048643990318585E-06   -7.8866916722627645E-05   -1.1757149905583181E-04
           1.3232077723542886E-05    1.2950923871165749E-05    1.0130971752260793E-04
          -1.4538850453723852E-04   -5.8744002748635214E-05    2.3200667150988196E-05
          -1.1713772882506078E-04    1.0534565735585700E-05   -8.9033538216352264E-05
           5.3871628111543103E-05   -4.7936706669083632E-05   -5.6010957293742914E-05
           1.1292510072952816E-05   -1.0171388283445448E-05   -4.5724593490347312E-05
          -2.0549761141539650E-05    2.3061196555795324E-06   -4.9939061932002045E-05
          -9.8613533872584039E-05   -6.5773573467774212E-05   -3.4341244938962832E-05
           1.0415762816432438E-04   -4.1930064028602888E-05    1.0613530765385691E-04
          -4.8289866879473489E-05    9.6708796456440103E-05   -3.4884217768988233E-05
           3.3190775409844866E-05    7.5364570258998272E-05    7.7887106275696815E-06
          -1.9478349840676463E-05    7.1709774838592694E-06    8.7311351920762312E-05
          -1.9906045838252263E-05   -5.9103539055894634E-05   -6.0693161481312591E-05
           1.0984140424261481E-04    7.5210542088367907E-05   -8.7141312304093947E-05