 # Version information for this restart file 
 # current date 2026-03-03 03:45:51.112
 # current working dir /home/shaofl/projects/03_CuAg_SAA/explicit/single-side/co2/2k/ad_stru/desorb
 # Program compiled at                              Wed Jun 16 17:08:34 CST 2021
 # Program compiled on                                                       mgr
 # Program compiled for                                       Linux-x86-64-intel
 # Source code revision number                                       git:e635599
 &GLOBAL
   PRINT_LEVEL  LOW
   PROJECT_NAME slowgrowth
   RUN_TYPE  MD
 &END GLOBAL
 &MOTION
   &MD
     ENSEMBLE  NVT
     STEPS  6000
     TIMESTEP     9.9999999999999989E-01
     STEP_START_VAL  2500
     TIME_START_VAL     2.4999999999998990E+03
     ECONS_START_VAL    -4.3015317591289058E+03
     TEMPERATURE     3.0014999999999998E+02
     &THERMOSTAT
       TYPE  NOSE
       REGION  GLOBAL
       &NOSE
         LENGTH  3
         TIMECON     2.2237606346543473E+01
         &COORD
               2.6421529933999297E-02    8.1290751587548833E+00    1.3367073774744243E+01
         &END COORD
         &VELOCITY
               2.9732887884468702E-05   -9.6087168411383055E-04   -6.6909444342496337E-04
         &END VELOCITY
         &MASS
               6.4750332819943212E+05    8.0335400521021347E+02    8.0335400521021347E+02
         &END MASS
         &FORCE
               1.5256382486019240E-08   -4.7064903871224782E-07   -2.5991461067250990E-07
         &END FORCE
       &END NOSE
     &END THERMOSTAT
     &AVERAGES  T
       &RESTART_AVERAGES
         ITIMES_START  1
         AVECPU     2.1966295848886674E+01
         AVEHUGONIOT     0.0000000000000000E+00
         AVETEMP_BARO     0.0000000000000000E+00
         AVEPOT    -4.3018631886838384E+03
         AVEKIN     3.8408131693072139E-01
         AVETEMP     3.0095072610396494E+02
         AVEKIN_QM     0.0000000000000000E+00
         AVETEMP_QM     0.0000000000000000E+00
         AVEVOL     1.8637835790266097E+04
         AVECELL_A     1.9320371010009591E+01
         AVECELL_B     1.9320371010009591E+01
         AVECELL_C     4.9930343883104676E+01
         AVEALPHA     9.0000000000000000E+01
         AVEBETA     9.0000000000000000E+01
         AVEGAMMA     9.0000000000000000E+01
         AVE_ECONS     5.5516746465270934E+01
         AVE_PRESS     0.0000000000000000E+00
         AVE_PXX     0.0000000000000000E+00
       &END RESTART_AVERAGES
     &END AVERAGES
     &PRINT
       &ENERGY  SILENT
       &END ENERGY
     &END PRINT
   &END MD
   &CONSTRAINT
     &COLLECTIVE
       COLVAR  1
       INTERMOLECULAR  T
       TARGET     2.5744304598616887E+00
       TARGET_GROWTH     4.2217495722394033E-06
     &END COLLECTIVE
     &LAGRANGE_MULTIPLIERS  SILENT
       COMMON_ITERATION_LEVELS  1
       FILENAME constraint_force.dat
     &END LAGRANGE_MULTIPLIERS
   &END CONSTRAINT
   &PRINT
     &TRAJECTORY  SILENT
       &EACH
         MD  5
       &END EACH
     &END TRAJECTORY
     &VELOCITIES  SILENT
       &EACH
         MD  5
       &END EACH
     &END VELOCITIES
     &RESTART  SILENT
       &EACH
         MD  10
       &END EACH
     &END RESTART
   &END PRINT
 &END MOTION
 &FORCE_EVAL
   METHOD  QS
   &DFT
     BASIS_SET_FILE_NAME BASIS_MOLOPT
     POTENTIAL_FILE_NAME GTH_POTENTIALS
     WFN_RESTART_FILE_NAME ./1-RESTART.wfn
     UKS  T
     CHARGE  0
     &SCF
       MAX_SCF  60
       EPS_SCF     1.0000000000000001E-05
       SCF_GUESS  ATOMIC
       &OT  T
         MINIMIZER  BROYDEN
         BROYDEN_BETA     9.0000000000000002E-01
         BROYDEN_SIGMA     1.0000000000000001E-01
         LINESEARCH  2PNT
         PRECONDITIONER  FULL_ALL
       &END OT
       &OUTER_SCF  T
         EPS_SCF     1.0000000000000001E-05
         MAX_SCF  50
       &END OUTER_SCF
       &PRINT
         &RESTART_HISTORY  SILENT
           ADD_LAST  NUMERIC
           FILENAME = MD_RESTART_HISTORY.wfn
           BACKUP_COPIES  5
           &EACH
           &END EACH
         &END RESTART_HISTORY
       &END PRINT
     &END SCF
     &QS
       EPS_DEFAULT     9.9999999999999998E-13
       EPS_PGF_ORB     9.9999999999999995E-07
       EXTRAPOLATION  ASPC
       EXTRAPOLATION_ORDER  2
     &END QS
     &MGRID
       NGRIDS  5
       CUTOFF     4.5000000000000000E+02
       REL_CUTOFF     6.0000000000000000E+01
     &END MGRID
     &XC
       DENSITY_CUTOFF     1.0000000000000000E-10
       GRADIENT_CUTOFF     1.0000000000000000E-10
       TAU_CUTOFF     1.0000000000000000E-10
       &XC_GRID
         XC_SMOOTH_RHO  NN10
         XC_DERIV  NN10_SMOOTH
       &END XC_GRID
       &XC_FUNCTIONAL  NO_SHORTCUT
         &PBE  T
         &END PBE
       &END XC_FUNCTIONAL
       &VDW_POTENTIAL
         POTENTIAL_TYPE  PAIR_POTENTIAL
         &PAIR_POTENTIAL
           R_CUTOFF     1.0000000000000002E+01
           TYPE  DFTD3
           PARAMETER_FILE_NAME dftd3.dat
           REFERENCE_FUNCTIONAL PBE
         &END PAIR_POTENTIAL
       &END VDW_POTENTIAL
     &END XC
     &PRINT
       &MULLIKEN  SILENT
         FILENAME =CHARGE.mulliken
         &EACH
           MD  5
         &END EACH
       &END MULLIKEN
     &END PRINT
   &END DFT
   &SUBSYS
     &CELL
       A     1.0223900000000002E+01    0.0000000000000000E+00    0.0000000000000000E+00
       B     0.0000000000000000E+00    1.0223900000000002E+01    0.0000000000000000E+00
       C     0.0000000000000000E+00    0.0000000000000000E+00    2.6422000000000001E+01
       PERIODIC  XYZ
       MULTIPLE_UNIT_CELL  1 1 1
     &END CELL
     &COORD
Cu    6.3230009377513952E-01    9.8833379134276207E+00    3.2959791162127972E-01
Cu    3.1311912344731025E+00    2.1009836687537318E+00    3.3002744303203368E-01
Cu    4.7900895698067880E-01    9.8492227360151077E+00    3.9764233386221259E+00
Cu    3.1313557235400764E+00    2.1478354782940943E+00    3.8499439182355868E+00
Cu    3.0335134278857940E+00    9.7109861572531404E+00    4.6584764951292135E-01
Cu    5.5328578827645358E-01    2.2056529472751754E+00    3.8755969459179485E-01
Cu    3.2281253956342253E+00    9.8330740300302075E+00    3.9439450308625403E+00
Cu    4.8217814315701507E-01    2.1413263651375845E+00    3.9402214601293974E+00
Cu    4.4054768011769250E+00    7.2104199304509586E-01    2.5064529528117365E+01
Cu    1.7553493948736714E+00    3.5399452541776566E+00    2.5122780821702968E+01
Cu    4.2896732761049634E+00    8.0386993338961887E-01    2.1012285595358189E+00
Cu    1.8238952906546508E+00    3.3716107335953915E+00    2.2025472192349747E+00
Cu    2.0037300627698835E+00    9.0213144118164612E-01    2.4908482351414303E+01
Ag    4.4697255687970108E+00    3.2775403197215920E+00    2.4905622637120349E+01
Cu    1.8464946945097291E+00    9.6552626637398098E-01    2.2523314596069932E+00
Cu    4.3703922090885978E+00    3.3576082279843931E+00    2.1715012465149632E+00
Cu    5.5995650135548214E+00    9.8033248525934837E+00    3.3690988017452200E-01
Cu    8.2455311185332558E+00    2.1029018968619058E+00    3.2698908103979168E-01
Cu    5.7691962168911441E+00    9.8712708123245694E+00    4.1051198232269126E+00
Cu    8.1355024290864417E+00    2.1272851176128253E+00    4.0026530723714320E+00
Cu    8.0955855111789319E+00    9.7807838178054460E+00    3.8479281932915643E-01
Cu    5.6705248257807623E+00    2.1378851471428399E+00    4.7091330506916163E-01
Cu    8.2137506170518542E+00    9.8901052840681327E+00    3.9800608126425536E+00
Cu    5.5529361075509600E+00    2.1024349696729865E+00    4.0046005331481229E+00
Cu    9.6066661625979997E+00    8.3427173785496622E-01    2.4995002520348624E+01
Cu    7.0217474853110238E+00    3.4866440524273461E+00    2.5031308940318880E+01
Cu    9.4897094522978875E+00    8.0659342874495332E-01    2.1905663722370865E+00
Cu    7.0434877465449937E+00    3.3575498325516882E+00    2.1572287379153172E+00
Cu    6.9452837961036540E+00    9.6164214362803035E-01    2.4948084688730503E+01
Cu    9.4993584711057508E+00    3.4527461115808471E+00    2.5117837185305895E+01
Cu    6.8567083148468644E+00    7.8037244932642469E-01    2.2091157656184923E+00
Cu    9.4862284619494197E+00    3.4668276860227669E+00    2.0467268629563025E+00
Cu    5.6925143048985971E-01    4.8332668335429556E+00    3.4637192483022478E-01
Cu    3.0400803538729178E+00    7.3326223132977528E+00    4.4372627653940994E-01
Cu    4.4548992578589736E-01    4.6933734595530057E+00    3.9036540659307839E+00
Cu    3.1376515875713302E+00    7.2046997127038903E+00    4.0293729887614687E+00
Cu    3.2134336769644483E+00    4.7023820669501113E+00    5.5050655684810645E-01
Cu    5.0996823584294892E-01    7.3386365979909707E+00    4.9111363974694022E-01
Cu    2.9492365484497736E+00    4.8003692319766618E+00    3.8820903962591893E+00
Cu    6.2760436107543527E-01    7.2603908102220229E+00    4.0094106845785165E+00
Cu    4.2230864703484645E+00    6.1346871982947029E+00    2.5069948420618001E+01
Cu    1.8055620852897936E+00    8.5707534487328889E+00    2.5051655531885764E+01
Cu    4.4803098254200018E+00    5.9558317122095090E+00    2.3126633210903598E+00
Cu    1.8425703617505316E+00    8.6153253540616248E+00    2.2412248099458387E+00
Cu    1.6330001830206176E+00    6.0653572952793837E+00    2.5011489471933650E+01
Cu    4.4780741707950860E+00    8.4920333039505760E+00    2.4994661920610923E+01
Cu    1.7642793074325047E+00    6.1306088166854638E+00    2.2586242547348951E+00
Cu    4.3821152391524194E+00    8.4909623705710278E+00    2.2269479589997045E+00
Cu    5.6636424604852582E+00    4.6460995091208686E+00    4.4612819852997504E-01
Cu    8.1035529342031509E+00    7.2771173795138013E+00    4.6175651453927480E-01
Ag    5.6312768398067998E+00    4.6640063975972037E+00    4.3214120758663768E+00
Cu    8.1997259251798802E+00    7.0700005320501953E+00    4.1029469343142999E+00
Cu    8.1969872401498449E+00    4.7540618159079564E+00    3.4786502979366146E-01
Cu    5.6586215937010058E+00    7.2934676709508848E+00    3.9004126539772088E-01
Cu    8.3357098173681052E+00    4.6039665357128818E+00    3.8711015487984417E+00
Cu    5.6962310033957326E+00    7.3686228427097271E+00    4.0217526603286435E+00
Cu    9.4333218299300778E+00    6.0375485340395549E+00    2.5040242126985177E+01
Cu    6.8170248428820264E+00    8.5659110777149987E+00    2.4994068457048563E+01
Cu    9.4192606237946546E+00    5.9850824372635723E+00    2.2213319746520170E+00
Cu    6.9012061059696039E+00    8.5402991929439338E+00    2.2493217060394595E+00
Cu    6.8484425981907044E+00    5.9949240596513160E+00    2.5082896490981813E+01
Cu    9.4961120212189485E+00    8.6667846795056214E+00    2.5136797750861444E+01
Cu    6.9072779048759116E+00    6.0176941937999864E+00    2.1785239698755117E+00
Cu    9.3857932943594893E+00    8.4840627394981514E+00    2.3170393972355647E+00
O    9.2291269224712309E+00    3.7488747909002834E-01    6.9312239625506242E+00
H    8.1798915233029490E+00    7.0821572006516365E-01    6.8866799016703926E+00
H   -5.7765408286958198E-01    6.0466019808959592E-01    6.0402265104112143E+00
O    6.2374760650691146E+00    8.5413724462758776E+00    8.0300764088442182E+00
H    5.8755487380642624E+00    8.6236917472868075E+00    8.9115923924580098E+00
H    6.2989630102068821E+00    9.4425025185777365E+00    7.6823922135607683E+00
O   -2.4542496786396253E-01    9.9822755526178426E+00    1.8118594335060578E+01
H   -1.9254044769301551E-01    5.6503924881012035E-01    1.8685276488453106E+01
H    2.4359966772415201E-01    9.2531888094948638E+00    1.8604610975013060E+01
O    1.3401761188089911E+00    2.8006922066635345E+00    6.5882670821921892E+00
H    1.8294431785211007E+00    1.9800818978686774E+00    6.7262996681669858E+00
H    1.6246401611901393E+00    3.0808834542927870E+00    5.6854698466272708E+00
O    1.7949152980228698E+00    5.6856719451321416E+00    7.2902445093396384E+00
H    1.8938534333638972E+00    4.8778187408379390E+00    7.8731602246357504E+00
H    2.1306170363933541E+00    5.5003884658741331E+00    6.3831532986171222E+00
O    1.6314946224668503E+00    5.6363634554885955E+00    1.6345309548671516E+01
H    1.4116155590312909E+00    4.7181495282134067E+00    1.6051918660815314E+01
H    2.2672802063486430E+00    5.6698860560525111E+00    1.7158458821063281E+01
O    9.5285114059018809E+00    6.2884730392579762E+00    1.8164316976049548E+01
H    9.2948694624740913E+00    5.4997824190635729E+00    1.7607488712206703E+01
H    2.0532676818918319E-01    6.5642423864840902E+00    1.7805559304145891E+01
O    6.4994813578689721E+00    5.8515770596420869E-01    2.2651749299049637E+01
H    5.5897253694697318E+00    1.9533163050604449E-01    2.2664806237031275E+01
H    6.4513939885145568E+00    1.5928818539235712E+00    2.2449292068256103E+01
O    5.5006225079540458E+00    5.2372908324172158E+00    1.8137808690493941E+01
H    6.0425278970620235E+00    5.7139580292853385E+00    1.8751733993628495E+01
H    4.6043034059649601E+00    5.7572363795324026E+00    1.8162474060777665E+01
O    3.1650634721398032E+00    7.2980195252972981E+00    1.3541143718960207E+01
H    2.3724749135784293E+00    7.3281777878203274E+00    1.4130700846960279E+01
H    3.5050478962238261E+00    8.2581978764110566E+00    1.3583595411307863E+01
O    6.2618550474785453E+00    2.7888521902461156E+00    1.7387421468491397E+01
H    5.6685339200181746E+00    2.4455737913731523E+00    1.6696526217643129E+01
H    5.8247167937944315E+00    3.5869416645596135E+00    1.7740168902808509E+01
O    1.0999032368801650E+01    1.0925236206829346E+01    2.2107003585235521E+01
H    1.0322328433851009E+01    1.1163177033570614E+01    2.2887531895913298E+01
H    1.0482027463304203E+01    1.1556707949669036E+00    2.1350676477993357E+01
O    3.0575424749250066E+00    5.9159222682945156E+00    1.8555672275489350E+01
H    2.5437415660175282E+00    5.2621573305866560E+00    1.9085117403644624E+01
H    2.6247508845350791E+00    6.7094735583174767E+00    1.8786105782152884E+01
O    4.5168938686571041E+00    3.7005379037108890E+00    1.1814377220538095E+01
H    3.7739548198636657E+00    3.0778543552626876E+00    1.1798554423945738E+01
H    4.7809953886086056E+00    3.7632550575275152E+00    1.2768544288769773E+01
O    1.6318178311059992E+00    9.6249663566057091E+00    1.6050788109323125E+01
H    1.1652370145474935E+00    8.8506247983516477E+00    1.5593263001375430E+01
H    9.8931147495092020E-01    9.8506085108990895E+00    1.6835953212720433E+01
O    5.7147166131287097E+00    1.6823885028631795E+00    1.0754651112837768E+01
H    5.4205611486094325E+00    2.3632941799674474E+00    1.1442127026414461E+01
H    6.6562663939791147E+00    1.9583992374172554E+00    1.0580549727097290E+01
O    3.5940275210992878E+00    9.8720696257599201E+00    1.9193857187335169E+01
H    3.8748633025181678E+00    1.0085930130071455E+01    2.0107641129152267E+01
H    4.4878835969104474E+00    9.5564437409857437E+00    1.8781639427810035E+01
O    1.7971402898022304E+00    6.3004204039640381E+00    1.0806478712287594E+01
H    1.6345067021963220E+00    5.3992977984998198E+00    1.0481371292707658E+01
H    2.3975565261320497E+00    6.2978740312270176E+00    1.1550322795793615E+01
C    5.8530103803498426E+00    4.3745954363282351E+00    6.6416734383492688E+00
O    4.0325458551194169E+00   -1.7770593604443974E-01    1.3660726582881486E+01
H    4.8794101689503657E+00    9.8063648030442359E+00    1.3128025367154818E+01
H    3.3857096253728685E+00    3.7660715743055562E-01    1.3046852808962154E+01
O    8.3354695946226034E+00    8.7669519537506204E+00    1.2655976071274990E+01
H    8.2401824498162064E+00    8.2436785897542162E+00    1.3488898437202067E+01
H    8.5847211841377113E+00    9.7188330416615791E+00    1.2929203048825158E+01
O    3.0857169154458499E+00    1.8718571754721338E+00    2.2127083941578547E+01
H    3.2871029011275659E+00    2.4417900085589852E+00    2.2896963803545763E+01
H    2.1256870366885057E+00    1.6298486419255240E+00    2.2195176499636865E+01
O    8.5762752755132272E+00    7.3592035770044308E+00    2.2158475792055651E+01
H    7.8312278299130975E+00    7.5731478518429221E+00    2.2793466518765317E+01
H    8.5739428587110282E+00    8.0842088431945989E+00    2.1469546630456556E+01
O    1.1116733190852861E+01    1.2137009270533057E+00    1.3858280834053831E+01
H    9.1381383107970870E-01    2.0071164814300944E+00    1.4506006532931995E+01
H    1.1272074218841592E+01    4.0963971244765984E-01    1.4471674625408864E+01
O    7.8792054122198554E+00    3.8369582270963352E+00    1.4188994813385088E+01
H    8.0833156384260416E+00    2.9075949789919004E+00    1.4099054674195719E+01
H    6.9043632531781647E+00    3.8651703388357213E+00    1.4048855565065960E+01
O    7.0179628268063177E-01    3.0323355972676231E+00    1.6295066486664229E+01
H   -2.0043563971285164E-01    3.3112845515560108E+00    1.6683895619362627E+01
H    1.2429292937461112E+00    2.5458238022411126E+00    1.6972944584873357E+01
O    1.6640201489737192E+00    5.2997851677466352E+00    2.2085572305269359E+01
H    1.3585265894768452E+00    4.7498549908139500E+00    2.2858555738305917E+01
H    2.6467939009993526E+00    5.2031660654493583E+00    2.2290158832986798E+01
O    8.6913692425115374E-01    4.3481382126065027E+00    1.9623552932406700E+01
H    9.8661427487074294E-01    4.6964768315896093E+00    2.0509742951404810E+01
H    2.4348886109387100E-01    5.1307027359512425E+00    1.9361996113390735E+01
O    2.1576585804323023E+00    9.7658713226460225E+00    1.0314579685909216E+01
H    2.9511718167081886E+00    9.2730453361030492E+00    1.0569385705828813E+01
H    1.3992319321792892E+00    9.1846413535471374E+00    1.0703076421599100E+01
O    2.8640591006607963E+00    1.8369735385687773E+00    1.7602232683268365E+01
H    3.1988893639117695E+00    1.0272076294494952E+00    1.8041720228809403E+01
H    3.1141967182196062E+00    2.5294512094858779E+00    1.8317485649316826E+01
K    2.1140537390896781E+00    8.1587156696924641E+00    7.3549735752878522E+00
O    5.9966821555328833E+00    9.5599588275151888E+00    1.2108114287958395E+01
H    6.9485044148211719E+00    9.2455440042504300E+00    1.2346506951369426E+01
H    6.0512289374190367E+00    1.5227161207011716E-01    1.1489719805608239E+01
O    4.6187776696587237E+00    8.2945022266013027E+00    1.0489006821396092E+01
H    5.0732471409828905E+00    8.6278046939252757E+00    1.1260996871389910E+01
H    4.6606792256147225E+00    7.2849292518031517E+00    1.0610817064063570E+01
O    7.8485434253395177E+00    7.4138083036222708E+00    1.4984280206115130E+01
H    6.9723691043023122E+00    7.0260151247628997E+00    1.4753356055052599E+01
H    7.6538082512558621E+00    8.1092914178695263E+00    1.5577904808270201E+01
O    4.6492635492807715E+00    7.3393141218143647E+00    6.2390315784130124E+00
H    5.0977095713690384E+00    7.7827795437995251E+00    6.9892059835775058E+00
H    4.7295205250146211E+00    6.3897488702278462E+00    6.4505065937858550E+00
O   -1.1044859423661280E+00    5.3097038488531307E+00    1.2307981930315025E+01
H   -1.3143983995904068E-01    5.2086846788688606E+00    1.2281170225514710E+01
H   -1.3595606447912931E+00    4.7720303092417327E+00    1.3079684795275396E+01
O    5.4915411223399611E+00    7.2760202421069948E+00    2.1163018873642109E+01
H    6.0785710235644066E+00    7.2650781884063207E+00    2.0366738233873001E+01
H    4.9776762549863030E+00    8.0925586493180948E+00    2.1131282784704165E+01
O    7.8603806791415662E+00    1.0272205580132965E+01    1.5997320932071473E+01
H    8.1241550080635463E+00    1.0625586140912091E+01    1.5152266984490151E+01
H    8.4643790227358089E+00    1.0588389184641477E+01    1.6659799807703937E+01
O    7.4974322499345218E+00    1.8595005668241626E+00    1.9503680739989171E+01
H    6.9707046941886572E+00    2.3623715926709750E+00    2.0172699722356139E+01
H    6.9985175995538125E+00    2.0443202136074770E+00    1.8663627252412073E+01
O    8.4248365146416546E+00    2.2713163080189944E+00    1.0498073664906288E+01
H    9.1587079954700172E+00    2.0060798440245691E+00    9.9668995251389045E+00
H    8.3286219192454531E+00    3.2452741468090234E+00    1.0216002982338592E+01
O    8.4372409424352934E+00    4.5339452982778372E+00    2.1738646303122284E+01
H    8.6799706409066335E+00    4.2208335147893319E+00    2.2700387584229460E+01
H    8.3208852498194457E+00    5.5229633034635910E+00    2.1696686269374304E+01
O    5.4478591513429793E+00    5.7222727457517939E+00    9.9433599338222542E+00
H    5.0334583510016380E+00    5.5263053655399759E+00    9.0733964280288362E+00
H    5.2879007249070940E+00    4.8404691835384845E+00    1.0463189652883109E+01
O    8.2120992078752870E+00    4.9011741938625759E+00    1.0060011437347031E+01
H    7.3310126980524268E+00    5.2639191840711232E+00    1.0061242418163115E+01
H    8.6117849130595285E+00    5.0579797523333676E+00    1.0959928292575187E+01
O    8.5459074767462884E+00    1.0754252718350552E+00    1.3295536724829013E+01
H    8.4164090284371671E+00    1.5194504811718814E+00    1.2427596088841215E+01
H    9.5682809718709674E+00    1.1006484664290634E+00    1.3442224216045517E+01
O    4.6089449094223918E+00    1.5768533617262501E+00    1.5510298912513941E+01
H    4.4870412262914972E+00    8.7274182885324447E-01    1.4866825603341592E+01
H    3.8172355207744895E+00    1.5224005707760730E+00    1.6155279522874299E+01
O    5.1410450320081891E+00    3.8461588773651285E+00    1.4359511224351378E+01
H    4.9385085948584209E+00    3.0321166137918585E+00    1.4900735753421458E+01
H    5.1872120763778033E+00    4.7571459074397424E+00    1.4872115129395622E+01
O    8.0095081923629419E+00    9.6344873994619071E+00    2.0474449403150835E+01
H    7.9494400080572394E+00    1.0476076272536883E+01    1.9972260949675892E+01
H    7.4293812833856085E+00    9.9322732496950472E+00    2.1235519656105890E+01
O    4.4214298436204347E+00    4.9255813753918600E+00    2.2195100169790816E+01
H    4.8372604818873599E+00    5.6296840098880088E+00    2.1732309926042984E+01
H    4.8918904978359752E+00    5.0546895167854222E+00    2.3057975623485273E+01
O    1.0202935313285359E+01    8.4306573152178892E+00    1.0826911059787326E+01
H    1.0652837761961006E+01    7.5709811600072570E+00    1.0761248545506984E+01
H    9.5576274748757371E+00    8.2298723208637856E+00    1.1583307360328133E+01
O    8.5224892694345940E+00    4.3664556990516878E+00    1.6837500006295176E+01
H    8.3185481227568356E+00    4.5083452322335136E+00    1.5921609943821725E+01
H    7.6440570545473605E+00    4.0369816217192360E+00    1.7078050062124770E+01
O    1.8751750373449494E+00    3.8870596027835891E+00    9.3117772986166081E+00
H    1.2443161048192426E+00    3.1153858740598284E+00    9.2229809744387907E+00
H    2.7615995428759650E+00    3.4723597399946318E+00    9.4114790744372314E+00
O    6.6220786192946264E+00    1.0108230468460384E+00    6.9863626164162866E+00
H    6.3411121408559046E+00    9.2875063754628595E-01    6.0218267293608099E+00
H    6.5708693405137755E+00    2.0056158903928782E+00    6.9964822225205907E+00
O    7.3218960877251549E+00    7.4593842899637703E+00    1.9079610484585100E+01
H    8.1997924560642250E+00    6.9551699802610223E+00    1.8876582752591599E+01
H    7.6041343369374284E+00    8.2743308837652165E+00    1.9644861790420258E+01
O   -1.0637847278277207E-01    1.8644138955671590E+00    1.9871064268670789E+01
H    2.3737658496492908E-01    2.7847812338013362E+00    1.9581465030636465E+01
H    9.1403747285380508E+00    2.1097213232351408E+00    1.9966298635823218E+01
O    4.2016305776789187E+00    2.5269572538056981E+00    8.7540614615951444E+00
H    4.6812277299998266E+00    3.2586455043956111E+00    8.3027619938700248E+00
H    4.7551963008023117E+00    2.1467781249689049E+00    9.4363953443586581E+00
O    3.2157421075320154E+00    2.9830392646979492E-01    7.0941438445153686E+00
H    3.7022751406339789E+00    1.0052478545913779E+00    7.5362333282555678E+00
H    3.5407770807880343E+00    3.3242557291023672E-01    6.1716126169108012E+00
O    4.1456975162836667E+00    9.4172464990747091E+00    2.2055290892652845E+01
H    3.7751051162108995E+00    1.0396480946242656E+01    2.2141018105422226E+01
H    3.3285670096966937E+00    8.9229665806763503E+00    2.2476002093781979E+01
O    5.2840891000566304E+00    6.3851987382455757E+00    1.4764554308460756E+01
H    4.9257282088791827E+00    6.8912662522679167E+00    1.5511392891335134E+01
H    4.5695690825341249E+00    6.5731509816568403E+00    1.4030769453641092E+01
K    9.3873334745566055E+00    4.6970836326866863E+00    7.3270967569351431E+00
O    2.6389109957464272E+00    1.5864090383909715E+00    1.1880326239518928E+01
H    1.7824484579706437E+00    1.6104589672039387E+00    1.2371562696239652E+01
H    2.3921509823055320E+00    1.0262294548089679E+00    1.1160825536004211E+01
O    5.8525576191943500E+00    9.2588604725359538E+00    1.7890705180108363E+01
H    6.3312274377760014E+00    9.7696804127958199E+00    1.7196715757329809E+01
H    6.5108596378450283E+00    8.8030855958832799E+00    1.8460826452369744E+01
O    1.4284831701044161E+00    7.9942048209711176E+00    2.2143609229055144E+01
H    1.0384944980496809E+00    8.9039562347747232E+00    2.2066687503226952E+01
H    8.6809787474775479E-01    7.3358898338664673E+00    2.2393730283659696E+01
O    4.0730881365944898E+00    7.8603512228353587E+00    1.6643035194698179E+01
H    3.4593856921608230E+00    8.5094103271461030E+00    1.6216692800550717E+01
H    4.8330354020249375E+00    8.4542016319470434E+00    1.6963513016775686E+01
O    4.5612036779906795E-01    1.4203560708695775E+00    9.0075641259564954E+00
H    1.0162769366299612E+01    1.0577655185913890E+00    8.1771214609475695E+00
H    1.1202708241033266E+00    7.2841874946999452E-01    9.2319854445304159E+00
O    5.3289139835422528E-01    7.2759257101033361E+00    1.4774204409864058E+01
H    9.1299809082043859E-01    6.6438597756150095E+00    1.5459563686984964E+01
H    9.7867018022202519E+00    7.2557931672690348E+00    1.4922572292428747E+01
O    9.6657167587048036E+00    8.2219912067923442E+00    8.1497298011649502E+00
H    9.3325858864527653E+00    9.1077246460934838E+00    7.9185121147849733E+00
H    9.7067020493125948E+00    8.2344715474195134E+00    9.1350378670614187E+00
O    7.9927239291256669E+00    6.8503044984311696E+00    6.3490084269855043E+00
H    7.1154682578406776E+00    7.1071527320041890E+00    6.6389186890452940E+00
H    8.5700047453216399E+00    7.3779744453397269E+00    6.9709169765442676E+00
O    1.6317131424632312E+00    8.1577452571164653E+00    1.9195032775696010E+01
H    2.4499021884774637E+00    8.7843031347590177E+00    1.9067457714527126E+01
H    1.6085712500456657E+00    7.9714855193923917E+00    2.0193057652558828E+01
O    6.4005478509288798E+00    3.0611064820758238E+00    2.1610455967859945E+01
O    3.9670997668703483E+00    2.9651083252409496E+00    1.9771828801363899E+01
H    4.8577768179745782E+00    3.3160659054987760E+00    1.9694127236926949E+01
H    3.7700421497259806E+00    2.6865610949060703E+00    2.0727846938626126E+01
O    4.8565928325100174E+00    4.8374621310900920E+00    7.2042352256928881E+00
O    6.8398175514510120E+00    3.6233761499668207E+00    6.7091070794083913E+00
H    5.6494380999138736E+00    3.6103832798236026E+00    2.1935800137841049E+01
H    7.2173860259138687E+00    3.5834632947026246E+00    2.1789595253667574E+01
     &END COORD
     &VELOCITY
           2.9036368399165440E-05    1.6130153656570896E-05    3.6749869452873152E-05
           6.9502740510868566E-05    1.1005370088713176E-04    9.4469303946106015E-05
          -1.7362006958212664E-04   -1.6998227727702078E-05   -2.2596241489931536E-04
           7.7557783434143191E-05   -9.9168625136698832E-05    3.4409775633429677E-06
           2.5983253305325024E-05    1.1722672077623243E-04   -3.1541427644532221E-05
           3.8787476136991975E-05   -8.0193141501316669E-05   -1.8287128331516257E-05
           2.0789289864118013E-05    5.3723892959472479E-05    1.0036249251324128E-04
          -4.3685363458597257E-05   -1.0477882001508029E-04   -1.0863409283233319E-04
          -9.2223379844824893E-05   -2.4964170471101255E-05    9.7199205456541214E-05
           4.9056246733474159E-05   -2.3693059703849407E-05    1.0545692821155368E-05
           9.7017176726306156E-06   -1.1306271231586039E-04    9.6706317982419101E-05
          -1.7066102791743574E-04    4.6789467184109461E-05    3.9790677786159497E-05
          -5.7395358607831488E-06    3.6774786579330909E-05    4.6565391865992027E-05
           7.8071161563265308E-05   -6.0944353538375243E-05   -1.7152389616236939E-05
          -1.7035783990312595E-06    8.9543080524372306E-05    1.0241352198066851E-04
          -2.4408194118120975E-05   -7.9315267760652570E-06    6.0387893923765864E-05
          -9.1572882146302169E-05   -7.1990625783343188E-05    1.7782022193903589E-05
           3.1440678211251439E-05    9.7913087214441326E-05    8.7934542606065550E-05
          -1.1007274977766112E-05   -4.6866627778063889E-05   -2.1154304063205876E-05
          -8.3682131208206819E-05    3.9105265659178418E-05   -2.9334007846658450E-06
          -1.1123238388960479E-04   -2.7629882506828614E-06    7.3438094699020812E-05
           1.7574018825486628E-04    2.8819446251264209E-05   -2.1315331011207637E-07
           9.0731526332869997E-05   -1.0144903376668094E-04    4.3031404952757594E-05
          -8.6058426253809628E-05    7.7303696661413021E-05   -6.6181091155786867E-05
           1.5982864252028583E-04   -8.6233148958846193E-05   -1.1651528012225588E-04
          -4.2415015151117434E-05   -8.8738312253927349E-05   -3.5137407325095934E-05
           1.0272737036267554E-05    5.2635866010027536E-06   -1.6320765061538357E-04
          -4.9086998205584560E-05    2.5318838920707673E-05   -1.7282739753985161E-04
           8.1928451941684376E-06   -1.7856674194636959E-04   -6.3359606395246016E-05
           3.4395929849152210E-05    8.6253513673725804E-05   -4.0709832856358646E-05
          -1.3991005827059513E-05    1.8840399677046690E-05    2.0689063004824639E-05
           8.2747267956313929E-05   -1.3673257012166885E-04   -1.3536045945826352E-05