 # Version information for this restart file 
 # current date 2026-03-03 06:49:06.885
 # current working dir /home/shaofl/projects/03_CuAg_SAA/explicit/single-side/co2/2k/ad_stru/desorb
 # Program compiled at                              Wed Jun 16 17:08:34 CST 2021
 # Program compiled on                                                       mgr
 # Program compiled for                                       Linux-x86-64-intel
 # Source code revision number                                       git:e635599
 &GLOBAL
   PRINT_LEVEL  LOW
   PROJECT_NAME slowgrowth
   RUN_TYPE  MD
 &END GLOBAL
 &MOTION
   &MD
     ENSEMBLE  NVT
     STEPS  6000
     TIMESTEP     9.9999999999999989E-01
     STEP_START_VAL  3000
     TIME_START_VAL     2.9999999999998336E+03
     ECONS_START_VAL    -4.3015317591289058E+03
     TEMPERATURE     3.0014999999999998E+02
     &THERMOSTAT
       TYPE  NOSE
       REGION  GLOBAL
       &NOSE
         LENGTH  3
         TIMECON     2.2237606346543473E+01
         &COORD
               3.9558209107110609E-02    8.5758349641419134E+00    1.1034628899352668E+01
         &END COORD
         &VELOCITY
              -9.0243629552809345E-06   -1.8200898344117001E-03   -9.2950351978775042E-04
         &END VELOCITY
         &MASS
               6.4750332819943212E+05    8.0335400521021347E+02    8.0335400521021347E+02
         &END MASS
         &FORCE
               1.1244859008473851E-07   -1.1175490678448494E-06    2.1295380013245515E-06
         &END FORCE
       &END NOSE
     &END THERMOSTAT
     &AVERAGES  T
       &RESTART_AVERAGES
         ITIMES_START  1
         AVECPU     2.1970506956773530E+01
         AVEHUGONIOT     0.0000000000000000E+00
         AVETEMP_BARO     0.0000000000000000E+00
         AVEPOT    -4.3018611477690783E+03
         AVEKIN     3.8323835784196869E-01
         AVETEMP     3.0029021714751951E+02
         AVEKIN_QM     0.0000000000000000E+00
         AVETEMP_QM     0.0000000000000000E+00
         AVEVOL     1.8637835790266097E+04
         AVECELL_A     1.9320371010009591E+01
         AVECELL_B     1.9320371010009591E+01
         AVECELL_C     4.9930343883104499E+01
         AVEALPHA     9.0000000000000000E+01
         AVEBETA     9.0000000000000000E+01
         AVEGAMMA     9.0000000000000000E+01
         AVE_ECONS     6.8654388919309142E+01
         AVE_PRESS     0.0000000000000000E+00
         AVE_PXX     0.0000000000000000E+00
       &END RESTART_AVERAGES
     &END AVERAGES
     &PRINT
       &ENERGY  SILENT
       &END ENERGY
     &END PRINT
   &END MD
   &CONSTRAINT
     &COLLECTIVE
       COLVAR  1
       INTERMOLECULAR  T
       TARGET     2.6616969224613998E+00
       TARGET_GROWTH     4.2217495722394033E-06
     &END COLLECTIVE
     &LAGRANGE_MULTIPLIERS  SILENT
       COMMON_ITERATION_LEVELS  1
       FILENAME constraint_force.dat
     &END LAGRANGE_MULTIPLIERS
   &END CONSTRAINT
   &PRINT
     &TRAJECTORY  SILENT
       &EACH
         MD  5
       &END EACH
     &END TRAJECTORY
     &VELOCITIES  SILENT
       &EACH
         MD  5
       &END EACH
     &END VELOCITIES
     &RESTART  SILENT
       &EACH
         MD  10
       &END EACH
     &END RESTART
   &END PRINT
 &END MOTION
 &FORCE_EVAL
   METHOD  QS
   &DFT
     BASIS_SET_FILE_NAME BASIS_MOLOPT
     POTENTIAL_FILE_NAME GTH_POTENTIALS
     WFN_RESTART_FILE_NAME ./1-RESTART.wfn
     UKS  T
     CHARGE  0
     &SCF
       MAX_SCF  60
       EPS_SCF     1.0000000000000001E-05
       SCF_GUESS  ATOMIC
       &OT  T
         MINIMIZER  BROYDEN
         BROYDEN_BETA     9.0000000000000002E-01
         BROYDEN_SIGMA     1.0000000000000001E-01
         LINESEARCH  2PNT
         PRECONDITIONER  FULL_ALL
       &END OT
       &OUTER_SCF  T
         EPS_SCF     1.0000000000000001E-05
         MAX_SCF  50
       &END OUTER_SCF
       &PRINT
         &RESTART_HISTORY  SILENT
           ADD_LAST  NUMERIC
           FILENAME = MD_RESTART_HISTORY.wfn
           BACKUP_COPIES  5
           &EACH
           &END EACH
         &END RESTART_HISTORY
       &END PRINT
     &END SCF
     &QS
       EPS_DEFAULT     9.9999999999999998E-13
       EPS_PGF_ORB     9.9999999999999995E-07
       EXTRAPOLATION  ASPC
       EXTRAPOLATION_ORDER  2
     &END QS
     &MGRID
       NGRIDS  5
       CUTOFF     4.5000000000000000E+02
       REL_CUTOFF     6.0000000000000000E+01
     &END MGRID
     &XC
       DENSITY_CUTOFF     1.0000000000000000E-10
       GRADIENT_CUTOFF     1.0000000000000000E-10
       TAU_CUTOFF     1.0000000000000000E-10
       &XC_GRID
         XC_SMOOTH_RHO  NN10
         XC_DERIV  NN10_SMOOTH
       &END XC_GRID
       &XC_FUNCTIONAL  NO_SHORTCUT
         &PBE  T
         &END PBE
       &END XC_FUNCTIONAL
       &VDW_POTENTIAL
         POTENTIAL_TYPE  PAIR_POTENTIAL
         &PAIR_POTENTIAL
           R_CUTOFF     1.0000000000000002E+01
           TYPE  DFTD3
           PARAMETER_FILE_NAME dftd3.dat
           REFERENCE_FUNCTIONAL PBE
         &END PAIR_POTENTIAL
       &END VDW_POTENTIAL
     &END XC
     &PRINT
       &MULLIKEN  SILENT
         FILENAME =CHARGE.mulliken
         &EACH
           MD  5
         &END EACH
       &END MULLIKEN
     &END PRINT
   &END DFT
   &SUBSYS
     &CELL
       A     1.0223900000000002E+01    0.0000000000000000E+00    0.0000000000000000E+00
       B     0.0000000000000000E+00    1.0223900000000002E+01    0.0000000000000000E+00
       C     0.0000000000000000E+00    0.0000000000000000E+00    2.6422000000000001E+01
       PERIODIC  XYZ
       MULTIPLE_UNIT_CELL  1 1 1
     &END CELL
     &COORD
Cu    6.7063634016657581E-01    9.7365362151856782E+00    3.8412769870191671E-01
Cu    3.1699192735146178E+00    1.9797497474140660E+00    4.5350324526413882E-01
Cu    5.9851690703250338E-01    9.7163998764581034E+00    3.9891784314573657E+00
Cu    3.0946324935495118E+00    2.0711033057373274E+00    4.0076978594814143E+00
Cu    3.2354337214352480E+00    9.6834580350533344E+00    4.8321785404967199E-01
Cu    6.6611269215430180E-01    2.0452859234659311E+00    4.2925025992476673E-01
Cu    3.3802162587417452E+00    9.7448178521949913E+00    3.8709010526948053E+00
Cu    4.5844921965397489E-01    1.9993766416038572E+00    3.9354045677658256E+00
Cu    4.3610803718630216E+00    6.1511272640485570E-01    2.5096044741392177E+01
Cu    1.7071117233733912E+00    3.3658395801947512E+00    2.5190834849985681E+01
Cu    4.4818511713826288E+00    7.7856758791854730E-01    2.1497116666009966E+00
Cu    1.8675792114967491E+00    3.3973317385470594E+00    2.1679795449486803E+00
Cu    2.0188678643203697E+00    8.0553845613979091E-01    2.5033010838628968E+01
Ag    4.3396425771670470E+00    3.2901001835757038E+00    2.4769246845639849E+01
Cu    1.8438855696633070E+00    7.5657009181601242E-01    2.2754728782395266E+00
Cu    4.3648034000146145E+00    3.3264875381158245E+00    2.2489077168944260E+00
Cu    5.7819983520856608E+00    9.6848616188461669E+00    3.2192445484690935E-01
Cu    8.0901782323344751E+00    2.1953911988175179E+00    2.9442192819491031E-01
Cu    5.8157965872128567E+00    9.7127993960211967E+00    3.9972962284274369E+00
Cu    8.1839164186088400E+00    2.0587596457768251E+00    3.8413126620274349E+00
Cu    8.2605082475062286E+00    9.8610242612997485E+00    2.8671355161287976E-01
Cu    5.6716934616337999E+00    2.0536280646867096E+00    1.7906954128348909E-01
Cu    8.3113512239782459E+00    9.6773550811873097E+00    3.9455920548156507E+00
Cu    5.5458466110828200E+00    1.9537962718233710E+00    3.9549914533361821E+00
Cu    9.7846534511508860E+00    8.5721185009198753E-01    2.4788218716664961E+01
Cu    7.0074864065048752E+00    3.4916391514412690E+00    2.4835761101962461E+01
Cu    9.4827497926871711E+00    7.3100142839372473E-01    2.1436582085218916E+00
Cu    6.8971660317015093E+00    3.2018862039054161E+00    2.0647230865080566E+00
Cu    7.0065732245811727E+00    7.5165835065943998E-01    2.4780279347630209E+01
Cu    9.5619211278415417E+00    3.2755925530920869E+00    2.5060790552090431E+01
Cu    7.0145615845308500E+00    7.3835851794948293E-01    2.1638913994955993E+00
Cu    9.4476067765525720E+00    3.3472304819609229E+00    2.1715262733938410E+00
Cu    5.2128955946974709E-01    4.6837978116833554E+00    4.0123439687354517E-01
Cu    3.1509925693073928E+00    7.0411282519100711E+00    4.7734649251615219E-01
Cu    5.0627114271046925E-01    4.5820358313457108E+00    3.8975248629076673E+00
Cu    3.3860279718165547E+00    7.1458525797595041E+00    4.1194972590065593E+00
Cu    3.1306029902920813E+00    4.5385325487133867E+00    3.2284230950970993E-01
Cu    5.5959720592781603E-01    7.2282938490220028E+00    3.2867512027418327E-01
Cu    2.8531146046492206E+00    4.5582747244673776E+00    3.9501515605959772E+00
Cu    6.0233933312166754E-01    7.0779016550433411E+00    4.0639658216430892E+00
Cu    4.4868477726259073E+00    5.8324145380380692E+00    2.5125113805485512E+01
Cu    1.9141732751800762E+00    8.4350011859976100E+00    2.4944029470876206E+01
Cu    4.3364872536758829E+00    5.7742901772683268E+00    2.3270807523427517E+00
Cu    1.9362854980098969E+00    8.4730183806744712E+00    2.1999985943533220E+00
Cu    1.9075050226163062E+00    5.8200005575080427E+00    2.4929110990712839E+01
Cu    4.3644705355891489E+00    8.3707445005074472E+00    2.5142779972587775E+01
Cu    1.8470145545899841E+00    5.8886243272091141E+00    2.1201143285572477E+00
Cu    4.5362099492386969E+00    8.3886927834505247E+00    2.2454203358884124E+00
Cu    5.6833740891078950E+00    4.5584769183325147E+00    3.4754118842866155E-01
Cu    8.1193859893512013E+00    7.1731312463930337E+00    3.2035636159383546E-01
Ag    5.6989715628209456E+00    4.5367885835518438E+00    4.2194813812063812E+00
Cu    8.5064080784079739E+00    7.0139596499893440E+00    4.0512465695868993E+00
Cu    8.2324112690949036E+00    4.5534577937911456E+00    3.4114945353117176E-01
Cu    5.6894670470625837E+00    7.0903234161924766E+00    4.7633619692265772E-01
Cu    8.3077277149562114E+00    4.4791966713774727E+00    4.0350840968967914E+00
Cu    5.8977199252768280E+00    7.2089429652628070E+00    4.1654128604391900E+00
Cu    9.4721259103731459E+00    6.0072337046769917E+00    2.5041599448173077E+01
Cu    6.7257417734091893E+00    8.4103220711662612E+00    2.4914961723856290E+01
Cu    9.4029371984916192E+00    5.8408009453581933E+00    2.1603297838910014E+00
Cu    7.1387965491486707E+00    8.3598157534504569E+00    2.2386725854860989E+00
Cu    6.8206241870124362E+00    5.8576562095414912E+00    2.5075915275388397E+01
Cu    9.4971562694920024E+00    8.6317431904443058E+00    2.5002948360583215E+01
Cu    6.9832560841925284E+00    5.7275756372822695E+00    2.2190258587117304E+00
Cu    9.6433887352488004E+00    8.3673437375242017E+00    2.2020847740047622E+00
O    9.3901001984862269E+00    1.7364930608823113E+00    6.8790778929593461E+00
H    8.3623486027812053E+00    1.5655951556722205E+00    6.8152773195210221E+00
H   -5.3011414582522443E-01    1.9542759625216426E+00    5.9701541425797267E+00
O    6.2091507700222328E+00    8.5154745533246139E+00    7.3439661947481172E+00
H    5.7123185782737105E+00    8.5671434471213566E+00    8.2036712206187552E+00
H    6.3802029259370805E+00    9.4885176005943528E+00    7.1350338280861605E+00
O   -9.4061841047094516E-02    1.0041440831589266E+01    1.8023960422591841E+01
H   -1.2549080946353045E-02    6.8689233837210428E-01    1.8585404213333931E+01
H    4.8170954692987727E-01    9.4124882491775601E+00    1.8568031532929123E+01
O    1.9354698625016860E+00    3.1522153222437908E+00    6.9795776093513275E+00
H    1.9652170319308255E+00    2.0963831253995511E+00    7.0473235952514850E+00
H    2.0365324477799200E+00    3.4009195848520695E+00    5.9964636773749325E+00
O    1.4205144006613706E+00    6.3435496917111651E+00    6.9021090728081465E+00
H    1.8985399325455663E+00    5.6765004861266721E+00    6.3540336606137533E+00
H    1.2007758829500412E+00    6.9940299055699002E+00    6.2026469726982487E+00
O    2.4070982982702054E+00    5.4099814547537735E+00    1.4733027758947941E+01
H    1.7704977917118701E+00    4.7412805978320414E+00    1.5254660245217821E+01
H    3.0282226952293749E+00    5.7232724462452147E+00    1.5429819610600225E+01
O    8.9325214790971152E+00    6.4332912592413871E+00    1.8698433941526581E+01
H    8.8193714323378281E+00    5.9265261859658231E+00    1.7781859741784743E+01
H   -5.5464943194286154E-01    7.0326345265871506E+00    1.8628702431511268E+01
O    6.5971554201758442E+00    8.4555201605294683E-01    2.2747424870697088E+01
H    5.6388580770294672E+00    5.5300550363371181E-01    2.2434065588682188E+01
H    6.6880673134026978E+00    1.8412285528837342E+00    2.2552966377263264E+01
O    4.9429811347243948E+00    5.6075888211710083E+00    1.8356426779045684E+01
H    5.4083694946985217E+00    6.2943808197794064E+00    1.8817855356447957E+01
H    3.9492476200258393E+00    5.8987227021368067E+00    1.8256230396171720E+01
O    2.6943235216946619E+00    8.6550077561639149E+00    1.2665854112533518E+01
H    1.8943734856931422E+00    8.2550015706562281E+00    1.3192015945796783E+01
H    2.9435757816653467E+00    9.4719206926907642E+00    1.3197517847451461E+01
O    6.1616909554535706E+00    3.4365842066836172E+00    1.7272899191105317E+01
H    5.5877339276071254E+00    3.0713576225579073E+00    1.6520850391258122E+01
H    5.6182344643821445E+00    4.1741463114499187E+00    1.7648189419591336E+01
O    1.0385366799084244E+01    1.0428864888308070E+01    2.1695582244413369E+01
H    9.6779821385802460E+00    1.0378708294236866E+01    2.2443529635344060E+01
H    9.9976856650087491E+00    7.8361731047592298E-01    2.0948500309471186E+01
O    2.3215609852492487E+00    6.1435130367263637E+00    1.7994243027789668E+01
H    1.6422795859385895E+00    5.5402331278246004E+00    1.8395313467694358E+01
H    1.9330343853023848E+00    7.0616841418611047E+00    1.8142646899630900E+01
O    4.1426407484604466E+00    3.8748665680557743E+00    1.1836567161254804E+01
H    3.3040284985250827E+00    3.3610052551458338E+00    1.1945764953786391E+01
H    4.5726391990225892E+00    3.9669969896476140E+00    1.2732848479282733E+01
O    1.2982299161407749E+00    9.4893795897468696E+00    1.5765074602344697E+01
H    7.0768527407929460E-01    8.8510174090348226E+00    1.5219307355478282E+01
H    8.0015108300966331E-01    9.7857931123453721E+00    1.6544443775523924E+01
O    5.4102060066310669E+00    1.9294691909811406E+00    1.0570802210650180E+01
H    5.0184830003034824E+00    2.7743154980118043E+00    1.1025843429806843E+01
H    6.3608773173223501E+00    2.2713357984034452E+00    1.0279913077592632E+01
O    3.5740966176380597E+00    1.0175556858369143E+01    1.8802074460675104E+01
H    3.8809870521273253E+00    1.0356580572072847E+01    1.9711278340520821E+01
H    4.4395075125258110E+00    9.7483853716858082E+00    1.8428885623521857E+01
O    1.2365506720974175E+00    6.5099031976102255E+00    1.0901965898760613E+01
H    1.3898017677649575E+00    5.7392559675629702E+00    1.0291296773330597E+01
H    2.0415303710562918E+00    6.7081649823556617E+00    1.1478498162966911E+01
C    5.8163537940968837E+00    4.5018324511430121E+00    6.7827315883277004E+00
O    3.7563958107521791E+00    6.9208854123976171E-01    1.3710896500295926E+01
H    4.3948612659839394E+00    1.0614330726957292E+01    1.3004741367955551E+01
H    3.1076061611800596E+00    1.2449909506449768E+00    1.3198453229826701E+01
O    7.7373273643116729E+00    8.8894344553007230E+00    1.2170459192565406E+01
H    7.5672300592876383E+00    8.2824193568940423E+00    1.2999134323007922E+01
H    7.8403727754765580E+00    9.8685730885877625E+00    1.2487629061763696E+01
O    2.3891747483847969E+00    1.8938764737286167E+00    2.2107080657384028E+01
H    2.3073046491987732E+00    2.1886318452362663E+00    2.3057206446804706E+01
H    1.5424995153053505E+00    1.2259774485490447E+00    2.2026942749885425E+01
O    8.9055183018003206E+00    7.6635075477278827E+00    2.1974517019514252E+01
H    9.6765042126649750E+00    7.5010239677165167E+00    2.2590109694242539E+01
H    8.8597353415253650E+00    8.4518412036097974E+00    2.1384044004879780E+01
O    1.0511084373691711E+01    1.3953451786688029E+00    1.4296475507123784E+01
H    2.4908258749034812E-01    2.1086544152202613E+00    1.5053743418419867E+01
H    1.1047004610693639E+01    7.1264410811839862E-01    1.4782076295875502E+01
O    8.0971179881705737E+00    4.3541270872771198E+00    1.4016519989261173E+01
H    8.3087128357716846E+00    3.4069709856292207E+00    1.3887016272519739E+01
H    7.0162257395388812E+00    4.3312251887367017E+00    1.4036522423303888E+01
O    4.1165754334920979E-01    3.2437857081082817E+00    1.6042482573606630E+01
H   -4.1253145329779317E-01    3.6493075805262567E+00    1.6513944424414717E+01
H    1.1182726310490134E+00    2.8269527086778714E+00    1.6642588623377733E+01
O    1.5537500761424461E+00    5.5590327633465986E+00    2.2137082716960276E+01
H    1.4190133399719012E+00    5.2583745456374986E+00    2.3082048126439002E+01
H    2.4276571140218790E+00    5.0940069448607241E+00    2.1919305299613743E+01
O    6.5453849660826069E-01    4.5983706704451643E+00    1.9525676695357443E+01
H    7.4191581844892551E-01    4.9883951496086993E+00    2.0381165650414420E+01
H   -2.6531456704941431E-01    4.9984036429560144E+00    1.9269204568153338E+01
O    1.5571892096015763E+00    1.0121239538974098E+01    1.0752798671500825E+01
H    2.0008290522690371E+00    9.5620426559979190E+00    1.1482618433519681E+01
H    5.8557790362442541E-01    9.7566705733206600E+00    1.0717062507778836E+01
O    2.5554752576528701E+00    2.0336331632783113E+00    1.7323637862993884E+01
H    2.8235005170166683E+00    1.1168930068496548E+00    1.7529162693800110E+01
H    2.8948594171174005E+00    2.5672840942104300E+00    1.8169303816653187E+01
K    2.3742407117464697E+00    8.4280246085281654E+00    8.1377613900848456E+00
O    5.2335649608987911E+00    9.7113958636897753E+00    1.1609557589531084E+01
H    6.0714681531914287E+00    9.3207958180621269E+00    1.1915610770509716E+01
H    5.4310255219242780E+00    5.0924563142910950E-01    1.1298502609308910E+01
O    4.7171396449880838E+00    8.3672376860030226E+00    9.4481048858545282E+00
H    4.9226012419239602E+00    8.8708510227475514E+00    1.0334233810699063E+01
H    4.7896340205259653E+00    7.3960469629605550E+00    9.6060508812367740E+00
O    7.5575581414655213E+00    7.5744318614339052E+00    1.4359054852823066E+01
H    6.5918191065995666E+00    7.3135646482999475E+00    1.4535252961112723E+01
H    7.8791136801359922E+00    8.0946910980800553E+00    1.5165469351483297E+01
O    4.0973149640235391E+00    7.3399526330566394E+00    6.4229074813539668E+00
H    5.0071906133322166E+00    7.7687293577090877E+00    6.5559967361857669E+00
H    4.2985290346537921E+00    6.3945828833008065E+00    6.5392963100201547E+00
O   -1.1515641660133735E+00    6.0660734029989376E+00    1.2295959939845849E+01
H   -4.3518496260325690E-01    5.9179301474737773E+00    1.1678443277280360E+01
H   -1.4910998867660061E+00    5.2845803178300246E+00    1.2796601019605882E+01
O    5.5845620640179323E+00    6.8393042754335278E+00    2.1966091293620750E+01
H    6.1418486852811673E+00    6.7334607907465927E+00    2.1145448486055976E+01
H    6.1707481379904658E+00    6.8912850516334849E+00    2.2776704407594099E+01
O    7.9740714449540127E+00    9.6958072507316047E+00    1.6476660015603386E+01
H    8.0153912316832976E+00    1.0115061724742942E+01    1.5621310281554203E+01
H    8.8316721096358393E+00    9.8184988313928852E+00    1.7014517459616506E+01
O    7.0635226739070340E+00    1.9219900033860504E+00    1.9491627763281297E+01
H    6.6579976608364175E+00    2.5269180204092261E+00    2.0162969363905855E+01
H    6.8564114539599412E+00    2.1731534694782875E+00    1.8559256718411380E+01
O    8.0241584400679002E+00    2.6491233170455142E+00    1.0360582065485918E+01
H    8.8964196650303595E+00    2.1454174888802764E+00    1.0022891463018436E+01
H    8.1434791506472219E+00    3.6018347985162467E+00    1.0076855552424757E+01
O    8.7619633474554366E+00    5.0559835998133877E+00    2.1907953862719431E+01
H    8.8908685706370711E+00    4.7150079396342051E+00    2.2847628597164064E+01
H    8.7336973418599229E+00    6.0270882454996793E+00    2.1986522951719014E+01
O    5.2007312193367561E+00    5.6444953100349604E+00    9.7910511893081953E+00
H    4.6228031904214184E+00    5.2172106506975409E+00    9.0601998908382839E+00
H    5.0029284661808298E+00    5.1348495391937483E+00    1.0590647760871491E+01
O    8.0175072921181130E+00    5.2715759966569715E+00    9.8170754912237843E+00
H    7.0974570441339386E+00    5.3200135141233540E+00    9.6162505743736801E+00
H    8.1387700558278233E+00    5.8567556835145522E+00    1.0625110943754327E+01
O    8.0415452262507028E+00    1.1179308643762620E+00    1.2870784860819366E+01
H    8.3002939885461018E+00    1.8344442595942398E+00    1.2222407142648818E+01
H    8.8662091495053570E+00    1.1237543953831397E+00    1.3447671265450978E+01
O    4.3350410150406562E+00    2.6347967383236695E+00    1.5373047979586483E+01
H    4.2708727877981714E+00    1.8389295094371712E+00    1.4772767542574224E+01
H    3.5938304553832365E+00    2.5892123804554625E+00    1.6000184794392109E+01
O    5.4429594757735398E+00    4.6336709996152710E+00    1.4089609909423004E+01
H    4.9278149010353518E+00    4.0079316253663881E+00    1.4668762947182099E+01
H    5.0095589491102785E+00    5.5765776590641174E+00    1.4072318237565160E+01
O    7.8220972118511254E+00    9.6863728794674451E+00    2.0797086218440501E+01
H    7.5641080217159073E+00    1.0340671400401847E+01    2.0082852061056911E+01
H    7.3173029288425786E+00    1.0016852560151728E+01    2.1629963951468387E+01
O    4.2185464334710563E+00    4.8278916972191581E+00    2.1947885793296358E+01
H    4.6868052663011408E+00    5.7109456890356292E+00    2.1939382646246877E+01
H    4.2066427749735515E+00    4.4768890853460688E+00    2.2886018962846947E+01
O    9.5023780159005380E+00    8.7894369088492468E+00    1.0144470253903343E+01
H    9.9180218461511434E+00    7.8796453043223700E+00    1.0121163187836457E+01
H    8.8087747937474798E+00    8.7236293492833941E+00    1.0898259536095004E+01
O    8.4446912891359354E+00    4.7334943115774335E+00    1.6670301836956348E+01
H    8.3532913948576812E+00    4.7692212365485487E+00    1.5659113867469094E+01
H    7.5799392215763639E+00    4.2198084445958290E+00    1.6915238174047960E+01
O    1.7973131822040491E+00    4.2870700001656514E+00    9.4210243380363377E+00
H    1.3004698851168008E+00    3.4671903650153868E+00    9.7919679267312159E+00
H    1.9732517245610526E+00    4.0854124327898145E+00    8.4336729830715669E+00
O    6.9752470824463444E+00    8.9931986562711586E-01    6.8133704042882135E+00
H    6.8166612756626623E+00    9.1057004866824431E-01    5.8106332609580926E+00
H    6.2819458718119670E+00    1.4146689647893900E+00    7.1430175023994558E+00
O    6.7361637381976553E+00    7.3519382601462278E+00    1.9685412678324298E+01
H    7.6198635083601909E+00    6.9646976479074612E+00    1.9374776696728595E+01
H    6.9644893203119667E+00    8.2470584264971087E+00    2.0098172208128712E+01
O   -4.1352789075394192E-01    2.0508306259092182E+00    1.9593394575196271E+01
H   -3.4547187918418182E-02    2.9214854093726546E+00    1.9811627004590573E+01
H    8.8431923382860305E+00    2.0656552063203173E+00    1.9690512010246046E+01
O    4.8279557653723453E+00    1.7678154063879168E+00    8.0535976009949692E+00
H    4.3767339381804735E+00    2.6252512803996741E+00    7.9804007383666153E+00
H    4.9343483332595124E+00    1.6840045463538289E+00    9.0074960440890877E+00
O    2.7180322137157606E+00    6.6458367801042806E-01    6.8738754432537457E+00
H    3.5855178236554948E+00    9.5483794393080135E-01    7.2175788345491307E+00
H    2.8820090766484636E+00    6.0016510592677441E-01    5.9293064719211346E+00
O    4.2943755730311901E+00    1.0312428364448209E+01    2.1755906301561687E+01
H    3.5300261382930227E+00    1.0931961238751144E+01    2.1816955755428005E+01
H    3.8899333087717802E+00    9.4102042987286918E+00    2.2011048055335966E+01
O    4.8514582004367011E+00    7.1353423690143503E+00    1.4024494393566130E+01
H    4.2473782782368792E+00    7.6686233703038758E+00    1.4702910820001399E+01
H    4.7098103584849982E+00    7.4323822290091464E+00    1.3136468339689591E+01
K    9.6051531845916944E+00    4.9710829040381235E+00    7.4283347849464958E+00
O    1.9950742027489554E+00    2.0137565589001221E+00    1.2308166307809518E+01
H    1.2831479359489433E+00    1.8884572312612973E+00    1.2997433886432164E+01
H    1.7290432413601493E+00    1.2686237330796997E+00    1.1618537582452278E+01
O    5.5750933633454238E+00    8.9960768626886942E+00    1.7712622417684148E+01
H    6.2102018754522712E+00    9.4468630699715810E+00    1.7080418837787516E+01
H    6.0137485449287018E+00    8.2210985789913309E+00    1.8224317332017581E+01
O    2.1761082911506877E+00    8.1776336720303942E+00    2.1733640511064205E+01
H    1.5636069209765961E+00    8.7192657826937250E+00    2.2148984300225944E+01
H    1.8910856710011990E+00    7.2961585188542886E+00    2.2032740794209587E+01
O    3.5231088298180420E+00    8.0298330708446919E+00    1.5981517696109391E+01
H    2.7508319086669943E+00    8.6671977306861194E+00    1.6137548100462077E+01
H    4.0791864741604300E+00    8.2680464944342713E+00    1.6749437042279531E+01
O    2.9427347923604746E-01    1.9627354875052743E+00    9.3484554705306628E+00
H    1.0347704580806807E+01    1.6725929086946287E+00    8.3906392998244481E+00
H    9.5791284980582914E-01    1.2629515068160122E+00    9.6575788693075353E+00
O    5.3467914410841200E-01    7.5105372182415255E+00    1.4228514245254921E+01
H    1.1845695718385965E+00    6.7898566539007383E+00    1.4482477540746245E+01
H    1.0053868223720267E+01    7.0608072555157797E+00    1.3746939128165627E+01
O    9.9622644171051959E+00    9.3157752429882859E+00    7.5376584217188007E+00
H    9.7541029661949388E+00    1.0213264634139589E+01    7.1651604795472332E+00
H    9.5421865711126088E+00    9.3162343888747863E+00    8.4712116510787556E+00
O    8.4766019344099472E+00    7.3687859405592224E+00    6.4344595046068260E+00
H    7.5852045629299338E+00    7.6456144122622884E+00    6.7706053840663660E+00
H    9.0454386958289348E+00    8.1308010320970734E+00    6.6145834665605054E+00
O    1.5758824722104665E+00    8.4614119028064394E+00    1.9081410867544690E+01
H    2.3283126146012867E+00    9.1072307015619423E+00    1.8812058178315048E+01
H    1.7462657413988423E+00    8.4073826348781306E+00    2.0130930718642038E+01
O    6.5720532171711703E+00    3.4840654757014247E+00    2.1662030370308749E+01
O    3.5754616460045217E+00    3.2306567736641552E+00    1.9580223248725076E+01
H    3.5861208195278405E+00    4.1804591751569360E+00    1.9648820048226355E+01
H    3.0737826017133143E+00    3.0504872054593335E+00    2.0381146167217860E+01
O    4.6672682025251193E+00    4.5774798891793953E+00    7.1604793708994645E+00
O    6.9993122962190091E+00    4.3385316461684882E+00    6.9726512970316366E+00
H    5.6523416907409052E+00    4.0402492633615177E+00    2.1744820723469520E+01
H    7.3111068802904997E+00    4.1635644014670170E+00    2.1571532817069862E+01
     &END COORD
     &VELOCITY
           1.8777451435825442E-05    5.2683041533992707E-05    1.1395581164137941E-05
          -8.1477328737329289E-05    1.5889721198667446E-04    5.2003989215426108E-05
          -4.1180124890717731E-05   -6.6669595053464058E-05    1.9214129834101934E-05
          -1.3479912532024615E-05   -3.8974073813800480E-05   -6.8249913214037502E-05
          -5.6113466359221710E-05   -8.0551496403985607E-05   -3.7149557875763603E-05
           9.1850312323862976E-05   -3.8199612928826164E-06    1.6761771868067940E-05
           9.0509627610929871E-05   -9.7042693738566251E-05    1.2940808591453668E-04
           1.2645733930113456E-05   -9.7412109209618337E-06   -1.3070716046721674E-05
           4.4164170409603942E-05   -5.5641624918404707E-05    1.9205167365494454E-04
           2.5698366972409587E-05    4.8242385725350122E-05   -9.3497191283091276E-07
           1.4230430265609880E-04   -8.8763433841399400E-05    2.2960625965543465E-05
           5.9472731286802953E-05    6.9035535844907541E-05    7.0164855996675859E-05
          -1.3645190471548936E-05   -1.1170812210439564E-04    6.9482269970574619E-05
          -2.0477035179452715E-05   -6.8822406920099571E-05    4.6441909000025727E-05
          -8.1969677231950543E-06    1.0159152161347463E-04    2.4140532469251439E-05
           4.1610363773150230E-05   -1.3440664268239629E-04    2.8872593720874484E-05
          -8.0165738108529852E-05    2.1026211463979011E-04   -4.9043864708774830E-05
           1.0333463037961224E-04    5.7212727692528584E-05   -1.1330017350149201E-04
          -1.7634205587609363E-05   -4.0525294601389882E-06   -2.2444025840089390E-04
          -3.6358743879170860E-05    5.8033974078167727E-05   -1.2008195447290489E-04
          -4.9352055760823270E-05   -1.4442800049534857E-04    6.3621939651858662E-05
          -2.1718786885121720E-05   -1.6409703378090408E-04    2.7753195028096625E-05
          -1.2622960940138824E-04   -4.3157721207883631E-06    1.2838398829733718E-04
           3.9942574131706889E-05   -6.5469956454626930E-06   -2.0853950603386065E-05
           1.0327222778877860E-04   -6.4856100150774220E-05    1.3002639730244766E-04
           2.9093325447649869E-05    8.5005601878270602E-05    6.2450746775684070E-05
          -4.3245250216473324E-05   -1.3456418784520145E-05   -3.4071882555630234E-05
           1.5987658344841400E-04   -9.9837034781088355E-05   -9.3012837148180790E-06
          -6.8775565151296033E-05    7.5917934105737525E-07   -2.0474866584746772E-05
           1.9121671786814045E-05   -8.7306945158854808E-05   -4.4409922387546620E-05
          -5.6526046411244877E-05    4.9716259139736162E-05   -6.4946661754479960E-05
          -5.7152268593135442E-05   -8.5774211400086654E-05    8.2294265703664353E-07