274
traj_1500
Cu    9.599015    0.186279    25.889068
Cu    2.128309    2.803598    25.933986
Cu    9.719862    0.036295    3.019506
Cu    1.881300    2.737551    3.032981
Cu    2.068090    0.115939    26.040995
Cu    9.586338    2.643594    25.907299
Cu    1.863101    0.058072    3.021620
Cu    9.602491    2.722522    3.111190
Cu    3.312135    1.367856    24.282346
Cu    0.723852    4.125548    24.162391
Cu    3.264696    1.395665    1.368131
Cu    0.666189    3.986196    1.228359
Cu    0.721910    1.525713    24.194097
Ag    3.293527    3.846742    23.766589
Cu    0.666496    1.544831    1.278561
Cu    3.438298    3.959921    1.301019
Cu    4.546466    0.247521    26.132943
Cu    7.040075    2.763622    25.934778
Cu    4.476228    0.148349    3.258625
Cu    7.003372    2.756670    3.096658
Cu    7.078415    0.066864    25.874800
Cu    4.680399    2.764849    25.951953
Cu    7.051424    0.092015    3.103792
Cu    4.464573    2.637153    3.055704
Cu    8.174213    1.474593    24.210479
Cu    5.953377    3.985685    23.981136
Cu    8.314484    1.423371    1.436300
Cu    5.966259    4.055821    1.265614
Cu    5.743685    1.355485    24.301370
Cu    8.461402    3.974337    24.281818
Cu    5.818013    1.444944    1.441849
Cu    8.450360    4.042735    1.276447
Cu    9.649010    5.376238    25.984452
Cu    2.066761    7.928430    25.872951
Cu    9.726916    5.263979    3.057290
Cu    1.952049    7.889170    2.982515
Cu    1.950925    5.352007    25.936364
Cu    9.698085    7.840095    25.900430
Cu    1.969839    5.253551    3.109077
Cu    9.657087    7.733562    3.094545
Cu    3.214905    6.563539    24.190134
Cu    0.727328    9.154787    24.160541
Cu    3.278805    6.532152    1.371038
Cu    0.641447    9.157649    1.123463
Cu    0.777221    6.577648    24.233202
Cu    3.318780    9.008278    24.018391
Cu    0.777425    6.575092    1.249761
Cu    3.366117    9.079232    1.352806
Cu    4.462630    5.247826    25.944290
Cu    7.027909    7.772515    25.820635
Ag    4.623350    5.246190    3.301693
Cu    7.107246    7.878640    3.108548
Cu    7.008483    5.290868    25.762243
Cu    4.657702    7.879662    25.852606
Cu    7.240362    5.350474    2.998633
Cu    4.671811    7.834984    3.082919
Cu    8.307225    6.483895    24.141781
Cu    5.925670    9.111028    24.008879
Cu    8.325526    6.608524    1.269049
Cu    5.865554    8.922704    1.355977
Cu    5.753602    6.552089    24.055117
Cu    8.481850    9.051730    23.934897
Cu    5.834473    6.510682    1.285430
Cu    8.353744    9.096306    1.262972
 O    5.517532    7.256004    6.438249
 H    5.285041    7.375215    5.479659
 H    4.769961    7.595847    6.934982
 O    8.289845    6.825680    5.922227
 H    7.375010    6.977198    6.214454
 H    8.312644    6.878129    4.917134
 O    0.915550    0.765872    16.431313
 H    0.381351    0.209079    17.026865
 H    1.549841    0.123505    16.008033
 O    4.288517    0.366629    5.401978
 H    3.644309    9.913196    5.941779
 H    3.854615    1.244453    5.492341
 O    0.648195    0.626623    6.079966
 H    0.435743    1.605868    6.370080
 H    0.565484    0.680605    5.088877
 O    6.676002    2.721909    12.158083
 H    6.373273    2.495143    13.092365
 H    7.653203    2.931703    12.161518
 O    0.698701    5.309782    16.810469
 H    0.603415    5.095387    15.764158
 H    10.204270    6.034452    17.069405
 O    7.843163    0.845823    20.908521
 H    7.867496    0.810142    19.902107
 H    7.251812    1.597996    21.072338
 O    6.457517    3.970656    21.408425
 H    7.443510    4.087515    21.364037
 H    6.165523    4.051527    20.458555
 O    2.255086    7.584089    13.553429
 H    2.862794    6.891318    13.897708
 H    2.312851    7.700028    12.572909
 O    7.255186    3.951435    16.912986
 H    6.980061    3.170431    16.306602
 H    7.952967    3.714956    17.534432
 O    0.329721    1.082711    21.775163
 H    9.600549    1.253348    21.574356
 H    0.797362    1.715161    21.172213
 O    5.654532    4.289642    18.761734
 H    4.717307    4.460279    18.347173
 H    6.138839    4.102647    17.915173
 O    7.274612    3.534709    8.963135
 H    6.937836    4.459563    9.051385
 H    7.497493    3.354359    8.010358
 O    7.703402    5.559450    14.718904
 H    7.673650    4.863203    15.410103
 H    8.630403    5.694406    14.528929
 O    8.969121    3.471627    11.183112
 H    8.889272    3.504344    10.185945
 H    9.831098    3.096001    11.345078
 O    4.336365    7.951434    16.612832
 H    3.690419    8.672116    16.388774
 H    5.160514    8.473875    16.753133
 O    3.699620    5.149369    8.798526
 H    4.273897    4.755238    8.126615
 H    4.038338    6.101726    8.920331
 O    7.001020    3.039668    5.355475
 H    6.821182    2.139760    5.808877
 H    7.931088    3.348532    5.563681
 O    4.470911    0.786013    13.858339
 H    3.967793    1.379102    13.279961
 H    5.050504    0.170432    13.362927
 O    2.132297    7.669868    10.835926
 H    3.071464    7.548305    10.522033
 H    1.990798    8.600038    10.653350
 O    3.454656    8.673957    21.537629
 H    3.587158    9.575909    21.706994
 H    2.550659    8.548612    21.179347
 O    9.297512    6.868416    21.234569
 H    8.384314    6.691543    20.896631
 H    9.161841    7.227275    22.137408
 O    2.683672    3.361516    12.962369
 H    3.282894    3.681626    12.272226
 H    3.192106    3.379510    13.876306
 O    8.570389    6.152130    11.988190
 H    8.575910    5.153459    11.842340
 H    9.092932    6.548203    11.276117
 O    3.871586    3.342295    15.269538
 H    4.047438    4.323381    15.240210
 H    3.319087    3.190777    16.055328
 O    2.653613    5.786932    20.701637
 H    1.809017    6.338205    20.737042
 H    2.821183    5.811776    19.738291
 O    9.574989    3.339739    18.408736
 H    10.128715    3.881197    17.775136
 H    9.615578    3.744299    19.248427
 O    6.162353    9.239338    12.399580
 H    6.953070    9.571104    12.910318
 H    5.954604    8.367240    12.767375
 O    2.449442    2.287802    17.720179
 H    1.723954    1.739188    17.295841
 H    3.151722    1.577548    17.878975
 O    10.090274    5.703709    7.302777
 H    10.056433    6.107553    8.212486
 H    9.340351    6.150800    6.786226
 O    8.147221    9.616703    13.982258
 H    8.698801    0.272058    14.087946
 H    8.843980    8.880888    14.055447
 O    9.124115    9.285550    9.367920
 H    8.984763    9.309065    8.381058
 H    8.135259    9.300682    9.722768
 O    9.733971    7.571923    14.119653
 H    0.462120    7.526733    14.245157
 H    9.449644    6.923523    13.417884
 O    4.368672    8.088945    8.970797
 H    3.759635    8.646250    8.436809
 H    5.166239    8.634390    9.225506
 O    2.608424    1.800020    8.456625
 H    3.480113    1.974337    8.831554
 H    2.608935    2.280339    7.605573
 O    5.381452    6.385235    21.956682
 H    4.428380    6.199977    21.871339
 H    5.923421    5.576217    21.874245
 O    6.619464    9.858089    16.112136
 H    7.081687    0.183212    16.813375
 H    7.285756    9.637968    15.359901
 O    4.803802    1.054493    18.714174
 H    4.598506    1.051733    19.738819
 H    5.371944    1.892342    18.687488
 O    1.393518    10.060113    10.109586
 H    0.446784    10.076369    9.823700
 H    1.950209    0.438503    9.534379
 O    2.104999    2.789080    20.253520
 H    2.129127    3.740823    20.534122
 H    2.116041    2.712196    19.260317
 O    7.133726    6.156219    9.068030
 H    6.554542    6.848991    8.691517
 H    7.466821    6.559450    9.885527
 O    10.171145    6.888455    9.658034
 H    9.788464    7.876390    9.492896
 H    0.845619    6.967792    10.123589
 O    0.834372    1.652591    12.379235
 H    0.896329    0.929250    11.686451
 H    1.745015    2.097433    12.527727
 O    6.366934    2.203455    15.234925
 H    6.453428    1.184030    15.369149
 H    5.388609    2.386872    15.172041
 O    0.531847    4.461097    14.402896
 H    1.393211    4.170533    13.776959
 H    0.028831    3.612411    14.434074
 O    5.581943    8.763620    19.348566
 H    5.459460    9.651157    18.941932
 H    4.728043    8.676615    19.806460
 O    6.924239    8.858396    22.178098
 H    6.534094    8.150391    21.663134
 H    7.022592    9.654735    21.580168
 O    3.123299    3.104998    6.137831
 H    2.621203    3.211429    5.294969
 H    3.856455    3.809221    6.163460
 O    9.573864    1.553828    14.569619
 H    10.159898    1.537572    13.733627
 H    10.199465    1.251201    15.355674
 O    5.650238    1.430119    9.411252
 H    6.328390    2.070646    9.852500
 H    5.854614    1.486044    8.427825
 O    5.117266    4.587157    6.491621
 H    5.825169    4.183109    5.933060
 H    5.158775    5.566709    6.426359
 O    7.188935    6.790714    18.979451
 H    6.542580    6.019526    18.932684
 H    6.607195    7.548305    19.114203
 O    8.085367    0.798078    18.385220
 H    8.728757    0.018403    18.268435
 H    8.668436    1.570187    18.040942
 O    6.641548    9.311621    9.946298
 H    6.343419    0.049586    9.743377
 H    6.341578    9.138735    10.941086
 O    2.128718    6.578466    6.191203
 H    2.387485    6.187300    5.298139
 H    1.241386    6.165216    6.549485
 O    2.897453    5.591144    18.075290
 H    3.451077    6.259685    17.671562
 H    2.050505    5.507104    17.500347
 O    5.782331    6.535730    12.696299
 H    6.710150    6.447191    12.448725
 H    5.303546    5.762292    12.254524
 O    6.426232    1.020754    6.732854
 H    5.589099    0.662611    6.288436
 H    7.194865    0.364380    6.657287
 O    2.743993    9.646454    15.315512
 H    2.604947    8.969836    14.623784
 H    3.518146    0.026378    14.926052
 O    8.835597    7.070543    17.071518
 H    8.135259    6.950003    17.800766
 H    8.379611    6.837131    16.258778
 O    0.866578    8.727223    20.441645
 H    0.679480    9.634697    20.806004
 H    0.160617    8.117470    20.779053
 O    4.417747    5.820160    14.765142
 H    5.068498    5.980982    14.059410
 H    4.497391    6.563744    15.356995
 O    2.629076    9.076983    6.870248
 H    1.992843    9.830689    6.859944
 H    2.280134    8.163784    6.519100
 O    4.665472    4.373580    11.622509
 H    5.470298    3.723851    11.764660
 H    4.482362    4.298332    10.680037
 O    8.513135    9.465593    6.623467
 H    8.517429    8.615272    6.058829
 H    9.334932    9.944890    6.354227
 O    9.727121    3.512830    6.148135
 H    9.898882    4.304262    6.699827
 H    10.012776    3.751047    5.222573
 O    9.797257    9.178813    18.016369
 H    10.122888    8.794394    18.814314
 H    9.479498    8.335546    17.617133
 O    9.176870    4.079029    21.328631
 H    9.444021    5.005724    21.671589
 H    9.877821    3.474183    21.619537
 O    4.257130    1.476638    21.229813
 H    4.797156    1.746242    22.081658
 H    3.580614    2.209896    21.239325
