274
traj_5500
Cu    9.442078    0.049484    25.951953
Cu    1.637664    2.607095    25.969920
Cu    9.377259    0.042020    3.193363
Cu    1.723136    2.590532    3.233260
Cu    1.633575    0.087210    26.039145
Cu    9.416212    2.538083    26.084591
Cu    1.666087    0.093855    3.263117
Cu    9.466820    2.643083    3.262853
Cu    2.961148    1.318372    24.334398
Cu    0.010735    4.077700    24.214178
Cu    2.881299    1.402924    1.419126
Cu    0.384828    3.821898    1.459023
Cu    0.195685    1.412841    24.081803
Ag    2.727839    3.926591    24.041642
Cu    0.283509    1.295470    1.480160
Cu    2.924751    3.866883    1.439206
Cu    4.196911    10.181880    26.017479
Cu    6.692360    2.548818    26.129508
Cu    4.189754    10.172576    3.310412
Cu    6.958182    2.597995    3.306449
Cu    6.656066    10.182186    26.153817
Cu    4.162252    2.556282    26.113391
Cu    6.854614    0.148144    3.197590
Cu    4.284734    2.549636    3.362992
Cu    7.930986    1.416828    24.503234
Cu    5.493608    3.939882    24.272042
Cu    8.059194    1.437685    1.457438
Cu    5.490950    3.973519    1.382399
Cu    5.419996    1.423985    24.402038
Cu    7.962782    3.752376    24.332548
Cu    5.406603    1.482159    1.473555
Cu    8.022490    3.945403    1.351485
Cu    9.355482    5.158571    26.128716
Cu    1.682241    7.719760    25.896995
Cu    9.429298    5.288415    3.328115
Cu    1.527246    7.688986    3.278178
Cu    1.628361    5.244452    26.105729
Cu    9.239645    7.783762    26.029633
Cu    1.678253    5.037929    3.196534
Cu    9.227172    7.781615    3.058082
Cu    2.953889    6.512113    24.349194
Cu    0.399754    9.088843    24.208893
Cu    2.822308    6.444226    1.401687
Cu    0.384725    8.965747    1.414634
Cu    0.452919    6.411305    24.263323
Cu    2.824966    9.089763    24.052739
Cu    0.456497    6.475920    1.462458
Cu    2.929965    9.055206    1.474083
Cu    4.205295    5.143542    26.033861
Cu    6.747672    7.684488    26.067417
Ag    4.281872    5.267967    3.566970
Cu    6.573457    7.753090    3.294295
Cu    6.701153    5.211838    26.009024
Cu    4.192003    7.837540    26.113655
Cu    6.963294    5.201614    3.170640
Cu    4.017277    7.886001    3.149767
Cu    8.129636    6.320824    24.350251
Cu    5.554031    8.982003    24.225539
Cu    8.028726    6.483384    1.532740
Cu    5.452304    8.930577    1.436564
Cu    5.476534    6.452099    24.261209
Cu    8.167158    9.021672    24.174280
Cu    5.355074    6.442591    1.436564
Cu    8.040075    9.097124    1.352542
 O    5.503423    6.887330    6.456216
 H    5.036907    7.248234    5.710323
 H    5.529187    7.654838    7.111481
 O    8.182698    5.958489    6.371401
 H    7.211121    6.046823    6.170858
 H    8.610364    5.378078    5.623130
 O    1.627849    1.340864    16.038154
 H    0.864840    0.849913    16.513750
 H    2.125242    0.558123    15.545648
 O    4.734688    0.047643    5.451123
 H    4.059911    9.787237    5.998851
 H    4.493097    1.028115    5.589574
 O    0.697168    0.332686    6.347621
 H    0.866680    1.334526    6.496377
 H    0.503323    0.176567    5.378991
 O    7.670685    2.469583    11.655801
 H    7.877515    2.202944    12.610164
 H    8.636435    2.636539    11.240976
 O    1.824148    5.996624    16.968473
 H    1.847459    5.290970    16.274102
 H    1.147122    6.629995    16.632913
 O    7.361412    1.637460    21.160851
 H    7.667516    1.549637    20.258012
 H    6.833757    2.434413    21.185424
 O    6.530107    4.058070    21.180404
 H    7.513851    4.375216    21.158473
 H    6.268784    4.215109    20.194863
 O    3.164808    7.418360    13.804174
 H    3.819956    6.863509    14.281619
 H    3.516715    7.598198    12.903184
 O    8.548407    3.324199    16.820509
 H    8.677433    3.701972    15.938543
 H    9.392595    3.406297    17.287650
 O    0.076475    1.893569    21.729981
 H    9.416928    2.356609    21.826950
 H    0.746242    2.642571    21.688234
 O    6.141292    4.724260    18.408472
 H    5.232285    5.155504    18.230652
 H    6.380838    4.306716    17.537074
 O    8.606377    3.219711    8.696009
 H    8.291685    4.121254    8.995898
 H    8.437478    3.134239    7.769653
 O    9.090581    4.211633    14.294038
 H    9.077187    3.473263    13.714339
 H    10.066861    4.310907    14.482955
 O    0.111952    3.276249    10.755868
 H    0.158879    3.372660    9.803619
 H    0.913914    2.775891    11.034091
 O    5.572639    8.539104    16.588788
 H    4.724157    9.006540    16.528546
 H    6.330639    9.145483    16.195365
 O    3.600653    4.505673    9.227355
 H    3.494120    5.476125    9.084148
 H    4.321643    4.261424    8.666152
 O    7.815558    2.766690    6.015233
 H    7.995703    1.741028    6.022631
 H    8.425925    3.150699    5.318749
 O    5.214189    0.544423    12.728006
 H    5.271647    1.164707    11.948821
 H    5.696348    9.938040    12.547279
 O    3.575298    7.374397    10.728389
 H    4.408341    7.541046    10.237204
 H    3.144872    8.297206    10.714121
 O    2.968509    9.490846    21.844653
 H    3.328697    0.199162    21.854429
 H    2.031693    9.576829    21.501167
 O    8.655145    7.735403    20.611802
 H    8.167567    7.866882    19.817293
 H    7.968917    8.056126    21.280543
 O    3.608117    3.279827    13.789906
 H    4.155913    3.559246    13.017591
 H    4.324199    3.299150    14.558786
 O    9.431446    5.808913    11.533467
 H    9.724360    4.868212    11.416154
 H    10.076062    6.234330    10.899075
 O    5.284223    3.766178    15.982932
 H    5.072179    4.751762    15.797714
 H    4.645127    3.140680    16.555761
 O    2.738267    6.259276    21.265218
 H    2.065126    6.937325    21.315156
 H    3.076269    6.274816    20.293417
 O    0.404560    4.177997    18.787627
 H    0.771087    4.896328    18.228802
 H    10.040381    4.540230    19.448970
 O    6.822000    8.460891    12.108410
 H    7.581329    8.907266    12.562340
 H    6.774458    7.550657    12.563661
 O    3.586953    2.382475    17.580670
 H    2.874654    1.719558    17.411041
 H    4.158674    1.841120    18.143195
 O    0.295062    5.409670    7.663437
 H    0.496882    5.720477    8.592963
 H    9.517326    5.412635    7.502791
 O    8.897656    9.376952    13.170574
 H    9.307021    0.047848    13.315103
 H    9.749716    8.852977    13.251161
 O    0.245271    9.209280    9.110570
 H    0.018914    9.099987    8.182629
 H    9.569468    8.975357    9.538606
 O    0.216849    7.236374    13.698750
 H    1.179020    7.050197    13.642471
 H    9.955523    6.544421    13.186163
 O    5.013903    8.758099    8.455304
 H    4.175645    9.012777    7.936376
 H    5.429913    9.562618    8.892060
 O    4.442387    1.635211    9.956074
 H    5.351189    1.638482    9.481535
 H    4.206521    2.559758    10.192286
 O    5.529187    6.743684    21.951398
 H    4.514261    6.671708    21.869489
 H    5.954911    5.939064    21.550312
 O    7.557098    10.081072    15.815681
 H    7.431753    0.772416    15.426749
 H    7.979754    9.519473    15.122103
 O    5.183620    1.077190    19.123979
 H    5.119107    1.524281    19.980581
 H    6.070441    1.179531    18.737161
 O    2.384213    9.987217    10.535508
 H    1.677231    9.959510    9.835325
 H    3.185154    0.309784    10.225050
 O    1.974133    3.731315    21.057541
 H    2.203966    4.633369    21.385703
 H    1.538186    3.820569    20.198562
 O    7.081278    5.799814    9.843516
 H    6.840300    6.569469    9.324060
 H    7.840198    6.078211    10.406833
 O    0.993661    6.673753    9.792786
 H    0.773029    7.567526    9.377696
 H    1.917390    6.521417    10.009446
 O    1.941416    1.865760    12.088593
 H    2.272875    0.971475    11.662407
 H    2.656578    2.204784    12.695243
 O    6.692463    2.003066    14.457854
 H    6.136385    1.500869    13.818442
 H    6.233410    2.662508    15.067146
 O    1.399550    3.996727    15.153810
 H    2.095184    3.856251    14.466309
 H    1.373479    3.106328    15.648165
 O    4.652386    8.674366    19.662196
 H    4.739596    9.555768    19.190034
 H    3.964419    8.730393    20.373212
 O    6.295878    9.324095    22.232263
 H    5.765462    8.804107    21.596550
 H    6.356403    0.024435    21.850466
 O    4.139248    2.651773    5.512686
 H    3.224823    2.714445    5.983790
 H    4.728349    3.315713    5.947592
 O    10.118594    1.538492    13.600989
 H    0.694203    1.500664    13.023668
 H    0.232900    1.569266    14.534214
 O    6.788056    1.116348    8.893117
 H    7.404966    1.867089    9.100794
 H    7.222572    0.720785    8.090416
 O    5.538287    4.197524    7.100912
 H    6.383190    3.839995    6.778828
 H    5.479192    5.100090    6.689522
 O    7.677024    7.116243    18.017954
 H    7.342192    6.186073    18.171202
 H    6.958693    7.699210    17.730483
 O    7.840913    1.200081    18.591312
 H    8.409260    0.481955    18.242013
 H    7.935587    1.896329    17.813448
 O    8.094159    8.914832    9.760551
 H    7.864735    9.888454    9.807318
 H    7.545852    8.533685    10.459677
 O    2.435026    6.484202    6.171915
 H    2.468152    6.222981    5.207248
 H    1.490440    6.310805    6.352906
 O    3.659747    6.476738    18.893051
 H    3.907881    7.416519    18.941139
 H    2.971168    6.314383    18.230916
 O    6.817194    5.782331    13.463594
 H    7.659132    5.238829    13.478126
 H    6.316530    5.236988    12.803573
 O    7.537979    0.161026    6.523592
 H    6.776094    10.147630    5.952612
 H    8.241486    9.724462    6.322256
 O    3.137101    9.680091    15.009281
 H    3.049278    8.761064    14.577546
 H    3.733359    10.223798    14.456533
 O    9.758201    7.493199    16.340422
 H    8.971472    7.234329    16.888150
 H    9.776809    7.265410    15.377868
 O    0.494837    9.548100    20.815252
 H    0.171250    0.241080    20.976690
 H    10.033531    8.865962    20.825292
 O    5.211531    6.343725    15.343520
 H    5.972189    6.130557    14.734493
 H    5.503832    7.199568    15.899439
 O    2.838768    8.944379    6.908296
 H    2.079439    9.534707    6.707753
 H    2.650342    7.960840    6.676575
 O    5.476739    4.079234    11.873783
 H    6.147733    3.385951    11.687507
 H    5.268273    4.590122    11.015332
 O    9.357118    8.359879    6.398616
 H    8.944379    7.469172    6.320142
 H    9.944072    8.379917    5.549413
 O    1.652080    3.102954    6.346300
 H    1.248849    3.814537    6.886630
 H    1.229424    3.283917    5.464334
 O    10.125955    9.948264    17.479210
 H    0.496882    9.650441    18.168031
 H    9.898473    9.101316    17.056194
 O    9.028010    4.973927    20.983031
 H    8.885796    6.003065    21.024250
 H    9.560267    4.864020    21.806605
 O    3.919639    1.812493    21.376719
 H    4.341988    2.290869    22.151676
 H    3.168080    2.490542    21.181461
