274
traj_7500
Cu    9.425618    0.019221    26.218286
Cu    1.695327    2.620590    26.126602
Cu    9.443816    0.002147    3.365370
Cu    1.922604    2.625498    3.230882
Cu    1.722727    0.102239    26.008760
Cu    9.440647    2.528370    26.125017
Cu    1.731009    10.216437    3.205781
Cu    9.520393    2.533380    3.408702
Cu    3.082097    1.241590    24.347609
Cu    0.470095    3.857477    24.359763
Cu    3.061751    1.250281    1.439471
Cu    0.418669    3.915447    1.576601
Cu    0.507617    1.295164    24.071499
Ag    3.141293    3.830384    23.930405
Cu    0.521112    1.343829    1.530626
Cu    3.038032    3.955013    1.456645
Cu    4.369490    0.029445    26.168613
Cu    7.019730    2.645127    26.329259
Cu    4.461199    0.033841    3.410552
Cu    6.850013    2.462222    3.231146
Cu    6.883752    0.067478    26.045751
Cu    4.188527    2.689908    26.253692
Cu    7.034350    0.025355    3.356122
Cu    4.381248    2.491769    3.190456
Cu    8.062363    1.262652    24.326207
Cu    5.843879    3.956752    24.544188
Cu    8.146097    1.171352    1.595889
Cu    5.599323    3.880072    1.489144
Cu    5.677638    1.662304    24.519880
Cu    8.228092    3.733666    24.305334
Cu    5.697779    1.382476    1.460080
Cu    8.208565    3.761271    1.496542
Cu    9.592063    5.203454    26.057112
Cu    1.805132    7.721294    26.156459
Cu    9.439829    5.208055    3.255455
Cu    1.637358    7.704731    3.429840
Cu    1.778959    5.151108    26.189222
Cu    9.495754    7.778343    26.264525
Cu    1.731315    5.111337    3.320981
Cu    9.347610    7.696143    3.409495
Cu    2.969123    6.398730    24.299521
Cu    0.487169    8.956341    24.293708
Cu    3.001430    6.512829    1.538817
Cu    0.338820    8.991613    1.604608
Cu    0.592271    6.266535    24.171110
Cu    3.138226    8.952251    24.279440
Cu    0.583478    6.485531    1.521643
Cu    3.102647    8.882013    1.640542
Cu    4.389631    5.270216    26.025406
Cu    6.987320    7.695325    26.235196
Ag    4.530824    4.965033    3.740827
Cu    6.693383    7.740719    3.342383
Cu    7.037724    5.164501    26.080892
Cu    4.350474    7.688884    26.122903
Cu    7.047948    5.116960    3.362728
Cu    4.308454    7.720374    3.440673
Cu    8.426436    6.513647    24.321451
Cu    5.722215    9.230648    24.163976
Cu    8.182801    6.351189    1.496542
Cu    5.457313    9.035167    1.507111
Cu    5.747161    6.568651    24.379051
Cu    8.189344    8.836210    24.549209
Cu    5.675082    6.429606    1.559691
Cu    8.142825    8.925056    1.728527
 O    5.388098    7.051526    6.180898
 H    5.247723    7.566095    5.349662
 H    5.209588    7.591961    6.974087
 O    8.193536    6.902973    6.541823
 H    7.262854    6.734074    6.259900
 H    8.760758    6.310293    5.963974
 O    0.738881    0.998159    16.582447
 H    0.331050    0.416726    17.330718
 H    1.183110    0.247725    16.031813
 O    4.590224    0.349862    5.517970
 H    3.907677    9.971779    6.024744
 H    4.144053    1.284838    5.640304
 O    0.276148    0.753706    6.008891
 H    0.361517    0.778857    5.025729
 H    0.419589    1.747776    6.259636
 O    6.426130    1.874654    12.144608
 H    6.402717    1.660259    13.131470
 H    7.376339    2.017482    11.886201
 O    1.135569    5.073406    17.511180
 H    1.036090    4.547488    16.682058
 H    0.616092    5.829872    17.249074
 O    7.697881    1.252530    20.967442
 H    7.614863    1.244555    19.986393
 H    7.395765    2.110008    21.356374
 O    6.454859    3.781923    21.627992
 H    7.325015    4.217972    21.731567
 H    6.054798    3.887229    20.731230
 O    1.914936    7.000816    13.841429
 H    2.713934    6.562210    14.232739
 H    2.205806    7.336364    12.912960
 O    7.313053    2.927512    17.895356
 H    7.349553    3.386871    17.018146
 H    8.218073    3.244248    18.347701
 O    0.171455    1.306717    21.866319
 H    9.416212    1.539924    21.472103
 H    0.718331    2.086289    21.631163
 O    5.445556    4.693588    19.106541
 H    4.561597    5.042632    19.039165
 H    5.566198    3.939064    18.407151
 O    8.049890    3.849912    8.823891
 H    7.641138    4.738369    8.918482
 H    8.495856    3.839586    7.960420
 O    7.609955    3.529086    15.394250
 H    7.550248    2.601880    14.958287
 H    8.571104    3.802473    15.502580
 O    8.887227    2.826193    11.187867
 H    8.894997    3.139146    10.248037
 H    9.724258    2.355178    11.427251
 O    4.033533    7.866678    16.739922
 H    3.370411    8.316222    16.173963
 H    4.837336    8.465900    16.822095
 O    4.444636    4.931703    9.245322
 H    4.829975    5.782638    9.138313
 H    4.859317    4.488803    8.376567
 O    7.646557    3.177077    6.267827
 H    7.603412    2.146917    6.211020
 H    7.994783    3.424291    5.327996
 O    3.400060    0.231060    12.673048
 H    4.109088    0.888559    12.655610
 H    3.926591    9.657496    12.638435
 O    2.661690    7.486553    11.370179
 H    3.612717    7.301705    11.345078
 H    2.510070    8.413145    11.045453
 O    3.239034    9.173088    21.980990
 H    3.317962    10.215005    22.116535
 H    2.317963    9.022285    21.651508
 O    8.098147    7.284018    20.980918
 H    7.665880    7.261014    20.033689
 H    7.502400    7.865655    21.514642
 O    2.298946    3.412329    13.850941
 H    3.043042    3.505162    13.149701
 H    2.861567    3.206215    14.628012
 O    8.402512    5.189243    12.111845
 H    8.538388    4.208975    11.934025
 H    9.150084    5.594416    11.535053
 O    4.131785    3.310703    15.951754
 H    4.423473    4.243532    15.729281
 H    3.488395    3.205704    16.717199
 O    2.528779    5.947549    21.395479
 H    1.668132    6.165421    21.776484
 H    2.553726    6.229525    20.459347
 O    9.545442    3.651364    18.969411
 H    10.176154    4.299252    18.486681
 H    9.463140    4.080358    19.879384
 O    5.705243    8.681625    12.552300
 H    6.533072    8.718635    13.098178
 H    5.637765    7.756362    12.259544
 O    2.550045    2.696758    18.344530
 H    1.929659    2.071873    17.893771
 H    3.218484    2.018096    18.482982
 O    1.658930    5.258356    8.350145
 H    2.570186    5.177281    8.787957
 H    0.945506    5.549635    8.974497
 O    7.749103    8.729881    14.341862
 H    8.319290    9.531026    14.106442
 H    8.413350    8.005314    14.328386
 O    9.532253    8.823123    9.525131
 H    9.422346    8.962475    8.532192
 H    8.633879    9.171247    9.850386
 O    9.459050    6.517838    14.127315
 H    0.187711    6.544523    13.978031
 H    9.033122    5.807686    13.460688
 O    4.919536    8.241486    8.486746
 H    4.195786    8.863917    8.489389
 H    5.582965    8.707798    9.054819
 O    3.389530    1.780390    9.488933
 H    4.340148    1.895102    9.390115
 H    3.007871    2.051426    8.626255
 O    5.288926    6.533992    22.081394
 H    4.309067    6.552089    21.962495
 H    5.561495    5.564971    22.100418
 O    6.177894    9.496061    16.405684
 H    6.723032    9.791940    17.224502
 H    6.872812    9.142211    15.754646
 O    4.845413    1.155914    18.295121
 H    5.501787    1.867191    18.491437
 H    5.042121    0.596258    17.528619
 O    1.620079    9.809628    10.553739
 H    0.954708    9.636435    9.858577
 H    2.207442    0.331970    10.266797
 O    2.136284    3.318576    20.896103
 H    2.225436    4.292913    20.879986
 H    1.969634    3.155402    19.927737
 O    7.137611    6.408749    8.942526
 H    7.194558    6.889886    9.818151
 H    7.867700    6.689702    8.365998
 O    0.053062    6.301603    10.574084
 H    10.032304    7.155401    10.127024
 H    0.858910    6.629075    11.080066
 O    0.766588    1.406809    12.395617
 H    1.153665    0.708414    11.815390
 H    1.489827    2.046314    12.717173
 O    5.675287    1.389735    14.687461
 H    5.551987    0.556487    15.230962
 H    5.230445    2.076474    15.204540
 O    0.190778    3.539003    15.582903
 H    0.745118    3.619567    14.759065
 H    0.313567    2.599529    15.820965
 O    4.948981    9.141189    19.907920
 H    4.865145    9.954398    19.432853
 H    4.206419    9.184436    20.551032
 O    6.420200    9.325015    22.097511
 H    5.859828    9.372863    21.219508
 H    6.875471    10.181369    21.929467
 O    3.476433    2.417952    6.530197
 H    2.648604    2.749513    6.070719
 H    4.072588    3.198649    6.487658
 O    9.090069    0.745425    14.301964
 H    9.915956    0.961456    13.790963
 H    9.428276    0.778652    15.219336
 O    6.287699    1.660668    9.102643
 H    6.810855    2.499948    9.270159
 H    6.560881    1.387179    8.120537
 O    5.525711    4.373273    6.923092
 H    6.341067    3.905428    6.572737
 H    5.482157    5.352007    6.637999
 O    6.750637    7.093035    18.724743
 H    6.205601    6.235761    18.925286
 H    6.130659    7.783046    18.978658
 O    7.626211    0.380738    18.222197
 H    8.528777    0.042531    18.188112
 H    7.593904    1.288927    17.778571
 O    6.924136    9.352619    10.036397
 H    6.830076    0.129435    9.841667
 H    6.640730    9.203350    10.942936
 O    2.165115    6.883036    6.279717
 H    2.930068    6.514669    5.693941
 H    2.086596    6.349962    7.178857
 O    3.174112    6.144564    18.906791
 H    3.491769    7.026273    18.579950
 H    2.496472    5.803904    18.256281
 O    5.717205    5.836620    12.100483
 H    6.684284    5.698904    12.185298
 H    5.298945    4.935077    12.118715
 O    6.929964    0.806155    6.707225
 H    6.090582    0.470913    6.177199
 H    7.534503    0.015540    6.817140
 O    2.145383    9.508431    15.116819
 H    1.970146    8.633061    14.651527
 H    2.632348    10.028010    14.404218
 O    9.481031    6.757384    16.946014
 H    8.597380    6.664654    17.328340
 H    9.353028    6.512420    15.978969
 O    0.099274    8.723236    20.606254
 H    10.193535    9.620588    21.055163
 H    9.477658    8.195580    20.759237
 O    4.572742    5.813514    15.167549
 H    5.092934    5.897657    14.350581
 H    4.750331    6.655452    15.731659
 O    2.720682    9.391675    6.826124
 H    2.010837    9.954194    6.450139
 H    2.416419    8.476329    6.595988
 O    4.297207    3.259482    12.124263
 H    5.156935    2.766076    12.169445
 H    3.989161    3.193844    11.186282
 O    9.044266    9.199976    7.091929
 H    8.840606    8.308861    6.650153
 H    9.544317    9.794394    6.488715
 O    0.551375    3.267252    6.652531
 H    1.132092    3.736733    7.303833
 H    0.632553    3.773028    5.852737
 O    10.067883    9.301909    18.078725
 H    0.104386    9.091092    19.065851
 H    9.783966    8.421120    17.630608
 O    9.456903    4.764235    21.314099
 H    9.082504    5.665165    21.378833
 H    9.697574    4.425006    22.240454
 O    3.990081    1.469072    21.386495
 H    4.555054    1.648399    22.130275
 H    3.393108    2.285757    21.197314
