274
traj_6500
Cu    9.486143    0.091606    25.898316
Cu    1.881300    2.542684    26.094103
Cu    9.395662    10.202941    3.259154
Cu    1.911051    2.635415    3.331286
Cu    1.840404    10.118389    26.001890
Cu    9.557915    2.463142    26.077721
Cu    1.819752    0.028013    3.235374
Cu    9.462015    2.486759    3.287161
Cu    3.145996    1.267968    24.263323
Cu    0.325938    3.955422    24.380372
Cu    3.284939    1.400879    1.625746
Cu    0.506185    3.958387    1.540403
Cu    0.469584    1.371843    24.104791
Ag    3.025456    3.962375    24.182735
Cu    0.631428    1.221245    1.416748
Cu    3.131478    3.917594    1.440263
Cu    4.352723    0.078929    26.080892
Cu    7.002963    2.777936    26.141663
Cu    4.331151    0.101626    3.351366
Cu    6.978221    2.609344    3.165356
Cu    6.937223    0.072385    26.110485
Cu    4.531948    2.620181    26.165707
Cu    6.916980    10.198340    3.218992
Cu    4.444023    2.725283    3.177510
Cu    8.010732    1.337593    24.247469
Cu    5.521213    3.845311    24.310090
Cu    8.228604    1.299867    1.528248
Cu    5.770471    3.886718    1.393760
Cu    5.582352    1.379000    24.306919
Cu    8.131579    3.983231    24.264379
Cu    5.665267    1.219916    1.403008
Cu    8.242713    3.879459    1.403008
Cu    9.459868    5.127081    26.166235
Cu    1.980369    7.714750    26.086176
Cu    9.292400    5.242918    3.191778
Cu    1.759022    7.586338    3.303543
Cu    1.813311    5.065636    26.269281
Cu    9.609239    7.687044    26.133472
Cu    1.665064    5.140270    3.260211
Cu    9.440647    7.832734    3.273950
Cu    3.080154    6.515998    24.422647
Cu    0.531336    8.862077    24.315638
Cu    3.108372    6.485020    1.377115
Cu    0.551375    8.965133    1.365489
Cu    0.580104    6.425210    24.288424
Cu    3.120845    9.020751    24.251697
Cu    0.569267    6.450565    1.341181
Cu    3.139760    9.039870    1.509489
Cu    4.431345    5.176770    26.009288
Cu    6.992841    7.884058    25.892503
Ag    4.281360    5.166341    3.565120
Cu    7.028011    7.770777    3.039323
Cu    6.858703    5.122992    26.037560
Cu    4.518453    7.819136    25.929494
Cu    6.922194    5.154993    3.217935
Cu    4.312850    7.721396    3.188871
Cu    8.366831    6.417133    24.397018
Cu    5.668539    9.119208    24.188284
Cu    8.233000    6.541353    1.344087
Cu    5.599528    8.954398    1.479368
Cu    5.731825    6.506081    24.103998
Cu    8.359776    8.943868    24.319601
Cu    5.590429    6.429300    1.503148
Cu    8.175030    9.062874    1.394289
 O    5.382270    7.105304    6.246953
 H    4.941006    7.484099    5.460371
 H    5.138021    7.574888    7.057316
 O    8.096613    6.066453    6.785434
 H    7.224617    6.268989    6.375629
 H    8.615783    5.584908    6.059886
 O    1.172784    0.945813    16.593016
 H    0.519067    0.567222    17.234014
 H    1.698905    0.234127    16.174492
 O    4.344953    0.098456    5.355739
 H    3.710356    9.595539    5.666991
 H    3.787546    0.901748    5.732781
 O    0.690829    1.083427    7.778373
 H    0.504345    1.920764    7.236457
 H    10.110926    0.737450    8.161756
 O    6.224106    1.895409    11.680109
 H    6.378384    2.004805    12.638964
 H    7.170430    1.922604    11.416418
 O    1.255290    5.106225    17.521749
 H    1.332481    4.389120    16.871504
 H    0.702280    5.788568    17.174828
 O    7.850115    1.411409    21.388873
 H    7.626314    1.404662    20.416015
 H    7.344236    2.184745    21.757196
 O    6.688884    3.705346    21.223472
 H    7.658315    4.082914    21.168250
 H    6.219198    4.256107    20.511134
 O    1.557100    7.535117    13.620541
 H    2.063899    6.902053    14.151887
 H    1.945915    7.282075    12.710567
 O    7.257844    3.520702    17.941066
 H    7.717204    3.705550    17.036113
 H    8.020752    3.543195    18.594747
 O    0.238319    1.435027    21.876623
 H    9.491255    1.463040    21.782561
 H    0.583376    2.311010    21.605534
 O    5.699313    5.263161    19.235216
 H    4.833349    5.652897    18.922908
 H    6.182597    4.791533    18.491172
 O    7.549737    3.179940    8.789543
 H    7.465492    4.121868    9.025227
 H    7.965440    3.130149    7.912861
 O    8.161739    4.024638    15.715013
 H    7.698086    3.279009    15.225149
 H    9.154071    3.894999    15.513149
 O    8.903586    2.843573    11.183640
 H    8.636946    2.824352    10.187795
 H    9.647374    2.260607    11.362253
 O    4.035476    8.170941    16.548363
 H    3.453838    8.802267    15.983460
 H    4.900929    8.606479    16.617588
 O    3.922910    4.774050    8.483576
 H    4.154891    5.757794    8.584772
 H    4.549022    4.555872    7.708619
 O    7.443408    3.068090    6.168744
 H    7.323891    2.116552    5.909016
 H    8.156116    3.400571    5.545978
 O    4.169000    0.145384    13.078097
 H    4.215314    0.943870    12.521650
 H    4.699109    9.666697    12.628923
 O    2.150597    7.272260    10.997629
 H    2.873734    7.104895    10.389130
 H    2.102954    8.279825    10.918892
 O    2.943256    9.012675    21.926825
 H    3.313464    9.986399    21.935809
 H    2.028524    9.183107    21.537365
 O    8.330229    7.961658    21.237211
 H    7.772107    7.566402    20.495281
 H    7.670276    8.534298    21.732623
 O    2.872405    2.945199    13.102406
 H    3.352110    3.341273    12.366553
 H    3.409262    3.010530    13.874985
 O    8.402819    5.324914    12.502362
 H    8.681829    4.460176    12.103126
 H    8.649828    6.027807    11.881709
 O    3.866372    3.476126    15.524246
 H    3.917594    4.478477    15.546176
 H    3.835803    3.156629    16.467247
 O    2.596564    6.128512    21.107743
 H    2.163479    6.593086    21.865790
 H    2.588487    6.660871    20.299494
 O    9.471625    4.124935    19.306027
 H    10.213472    4.500356    18.742974
 H    9.453222    4.702687    20.111898
 O    6.033021    8.612307    12.422303
 H    6.654532    8.743786    13.140453
 H    5.819955    7.629381    12.347793
 O    2.866373    2.645230    17.897206
 H    2.229833    1.942030    17.633250
 H    3.501788    2.153460    18.424325
 O    1.171250    5.180246    8.085132
 H    2.171556    5.097125    8.370225
 H    0.622431    5.769960    8.767084
 O    7.775787    8.991716    14.613480
 H    8.468763    9.690826    14.418221
 H    8.341987    8.171145    14.525494
 O    8.991716    9.057966    8.798262
 H    8.910231    8.707082    7.853675
 H    8.047743    9.060829    9.138313
 O    9.383904    6.701255    14.467630
 H    0.039260    6.794804    13.960856
 H    8.953887    5.911970    14.146339
 O    4.544217    7.896225    8.659018
 H    3.838665    8.499333    8.371546
 H    5.222368    8.514873    9.069351
 O    3.582148    0.981699    9.602812
 H    4.298434    0.932215    8.882284
 H    2.976893    1.730191    9.341762
 O    5.990183    6.526120    22.008469
 H    5.099170    6.455779    21.759574
 H    6.282280    5.568856    22.221430
 O    6.581431    9.341475    17.117228
 H    6.651363    0.105920    17.451467
 H    7.036292    9.273793    16.227600
 O    4.636641    1.114610    19.275642
 H    4.555463    1.497904    20.178481
 H    5.567425    1.167263    19.050790
 O    1.661486    9.741025    10.369314
 H    1.150087    9.574580    9.536228
 H    2.506798    10.176052    9.977740
 O    1.876086    3.227174    20.767692
 H    1.838257    4.212860    20.900595
 H    1.966874    3.151619    19.749388
 O    7.127899    5.787034    9.444544
 H    8.004496    5.857579    9.879978
 H    6.477863    5.623349    10.168242
 O    9.854613    6.767302    10.110643
 H    9.550656    7.571820    9.703215
 H    0.419691    6.908800    10.684528
 O    0.606482    1.195378    12.192432
 H    1.022288    0.541356    11.510480
 H    1.367242    1.817298    12.459030
 O    6.126059    2.234945    14.538706
 H    6.023615    1.376648    14.988672
 H    5.381350    2.754319    14.914691
 O    0.887230    3.373274    15.509450
 H    1.489316    3.763724    14.873208
 H    1.131377    2.393415    15.473780
 O    4.887740    8.786011    19.997491
 H    4.676003    9.695222    19.615164
 H    4.003066    8.525097    20.407560
 O    6.295162    9.449849    22.121820
 H    5.769449    9.101316    21.303266
 H    6.614148    0.154688    21.913614
 O    3.292198    2.316634    6.133339
 H    2.391063    2.736427    6.219475
 H    3.957365    3.062058    6.106124
 O    9.402716    0.839791    14.466573
 H    9.936404    1.003169    13.597290
 H    10.033838    0.938554    15.210353
 O    5.888557    1.209692    8.299679
 H    6.429095    2.035374    8.469836
 H    6.344646    0.806768    7.562769
 O    5.208975    4.559859    6.291607
 H    6.182392    4.265922    6.328069
 H    5.247008    5.556178    6.215511
 O    7.324402    7.362333    18.723422
 H    6.661791    6.614250    18.902299
 H    6.984151    8.140678    18.262886
 O    7.414066    1.086698    18.726328
 H    8.138940    0.440752    18.354042
 H    7.313053    1.914323    18.126285
 O    6.375420    9.283097    9.985138
 H    6.192412    0.023924    9.921461
 H    6.336364    9.007460    10.952712
 O    0.945404    7.090888    6.146021
 H    1.126367    6.500253    5.389560
 H    0.931602    6.477454    6.984127
 O    3.299764    6.471831    18.603994
 H    3.678253    7.237703    18.070798
 H    2.661588    5.906143    18.048340
 O    5.732030    6.016765    12.667764
 H    6.607911    5.572128    12.836600
 H    5.203045    5.407216    12.095199
 O    7.080664    0.301605    5.949178
 H    6.245678    10.150595    5.582440
 H    7.807686    9.858498    5.959218
 O    2.536447    9.659950    14.934771
 H    2.048461    8.994783    14.347410
 H    3.125651    10.146812    14.202353
 O    9.553008    7.161433    17.194645
 H    8.746137    6.836722    17.689793
 H    9.255288    7.031589    16.251380
 O    0.189244    9.294343    20.453534
 H    0.107658    10.173905    20.954760
 H    9.664448    8.758815    20.816044
 O    3.750535    6.229013    14.747439
 H    4.506491    6.028114    14.077906
 H    4.145894    6.819444    15.474044
 O    2.336059    9.122786    7.374116
 H    1.759022    9.990284    7.297228
 H    1.821797    8.422347    6.914902
 O    4.522031    3.937837    11.195530
 H    5.125037    3.165115    11.123134
 H    4.136999    4.041814    10.238261
 O    8.808606    8.620384    6.146814
 H    8.651975    7.676309    6.441419
 H    9.679989    8.430015    5.712436
 O    0.719763    3.321234    6.379856
 H    0.804621    4.183620    6.902747
 H    0.545547    3.469583    5.466712
 O    9.590427    9.782534    17.905133
 H    9.919534    9.835699    18.819598
 H    9.698289    8.818727    17.583313
 O    8.968303    5.274510    21.503280
 H    8.546260    6.153050    21.635390
 H    9.393310    4.939677    22.377584
 O    3.772721    1.737041    21.773842
 H    4.348122    2.271853    22.360674
 H    3.050096    2.390348    21.473952
