 DBCSR| CPU Multiplication driver                                           XSMM (U)
 DBCSR| Multrec recursion limit                                              512 (U)
 DBCSR| Multiplication stack size                                           1000 (D)
 DBCSR| Maximum elements for images                                    UNLIMITED (U)
 DBCSR| Multiplicative factor virtual images                                   1 (U)
 DBCSR| Use multiplication densification                                       T (D)
 DBCSR| Multiplication size stacks                                             3 (U)
 DBCSR| Use memory pool for CPU allocation                                     F (U)
 DBCSR| Number of 3D layers                                               SINGLE (U)
 DBCSR| Use MPI memory allocation                                              F (U)
 DBCSR| Use RMA algorithm                                                      F (U)
 DBCSR| Use Communication thread                                               T (U)
 DBCSR| Communication thread load                                             87 (D)
 DBCSR| MPI: My process id                                                     0
 DBCSR| MPI: Number of processes                                              48
 DBCSR| OMP: Current number of threads                                         1
 DBCSR| OMP: Max number of threads                                             1
 DBCSR| Split modifier for TAS multiplication algorithm                  1.0E+00 (U)


  **** **** ******  **  PROGRAM STARTED AT               2026-04-03 18:25:05.323
 ***** ** ***  *** **   PROGRAM STARTED ON                                node40
 **    ****   ******    PROGRAM STARTED BY                                shaofl
 ***** **    ** ** **   PROGRAM PROCESS ID                                216231
  **** **  *******  **  PROGRAM STARTED IN /share/home/chem-wangyg/shaofl/projec
                                           ts/03_CuAg_SAA/small/explicit/potenti
                                           al/potential/pzc/potential_t6500_i650
                                           0

 CP2K| version string:                                       CP2K version 2023.2
 CP2K| source code revision number:                                  git:65cca6c
 CP2K| cp2kflags: omp libint fftw3 libxc elpa parallel mpi_f08 scalapack xsmm pl
 CP2K|            umed2 spglib mkl libvori libbqb
 CP2K| is freely available from                            https://www.cp2k.org/
 CP2K| Program compiled at                          Fri May 17 19:19:49 CST 2024
 CP2K| Program compiled on                                                node23
 CP2K| Program compiled for                                                local
 CP2K| Data directory path    /share/apps/cp2k/cp2k-2023.2-intel/cp2k-2023.2/dat
 CP2K| Input file name                                                    sp.inp
 
 GLOBAL| Force Environment number                                              1
 GLOBAL| Basis set file name                                        BASIS_MOLOPT
 GLOBAL| Potential file name                                      GTH_POTENTIALS
 GLOBAL| MM Potential file name                                     MM_POTENTIAL
 GLOBAL| Coordinate file name                                           init.xyz
 GLOBAL| Method name                                                        CP2K
 GLOBAL| Project name                                               sp_potential
 GLOBAL| Run type                                                   ENERGY_FORCE
 GLOBAL| FFT library                                                       FFTW3
 GLOBAL| Diagonalization library                                            ELPA
 GLOBAL| DGEMM library                                                      BLAS
 GLOBAL| Minimum number of eigenvectors for ELPA usage                        16
 GLOBAL| Orthonormality check for eigenvectors                          DISABLED
 GLOBAL| Matrix multiplication library                                 ScaLAPACK
 GLOBAL| All-to-all communication in single precision                          F
 GLOBAL| FFTs using library dependent lengths                                  F
 GLOBAL| Grid backend                                                       AUTO
 GLOBAL| Global print level                                                  LOW
 GLOBAL| MPI I/O enabled                                                       T
 GLOBAL| Total number of message passing processes                            48
 GLOBAL| Number of threads for this process                                    1
 GLOBAL| This output is from process                                           0
 GLOBAL| Stack size for threads created by OpenMP (OMP_STACKSIZE)         65535M
 GLOBAL| CPU model name             Intel(R) Xeon(R) Platinum 9242 CPU @ 2.30GHz
 GLOBAL| CPUID                                                              1003

 MEMORY| system memory details [Kb]
 MEMORY|                        rank 0           min           max       average
 MEMORY| MemTotal            394659340     394659340     394659340     394659340
 MEMORY| MemFree             345236176     345236176     345236796     345236292
 MEMORY| Buffers                  2112          2112          2112          2112
 MEMORY| Cached               14120600      14120600      14120600      14120600
 MEMORY| Slab                  1083896       1083896       1083896       1083896
 MEMORY| SReclaimable           424808        424808        424808        424808
 MEMORY| MemLikelyFree       359783696     359783696     359784316     359783812

 
 GENERATE|  Preliminary Number of Bonds generated:                             0
 GENERATE|  Achieved consistency in connectivity generation.

 *******************************************************************************
 *******************************************************************************
 **                                                                           **
 **     #####                         ##              ##                      **
 **    ##   ##            ##          ##              ##                      **
 **   ##     ##                       ##            ######                    **
 **   ##     ##  ##   ##  ##   #####  ##  ##   ####   ##    #####    #####    **
 **   ##     ##  ##   ##  ##  ##      ## ##   ##      ##   ##   ##  ##   ##   **
 **   ##  ## ##  ##   ##  ##  ##      ####     ###    ##   ######   ######    **
 **    ##  ###   ##   ##  ##  ##      ## ##      ##   ##   ##       ##        **
 **     #######   #####   ##   #####  ##  ##  ####    ##    #####   ##        **
 **           ##                                                    ##        **
 **                                                                           **
 **                                                ... make the atoms dance   **
 **                                                                           **
 **            Copyright (C) by CP2K developers group (2000-2023)             **
 **                      J. Chem. Phys. 152, 194103 (2020)                    **
 **                                                                           **
 *******************************************************************************


 TOTAL NUMBERS AND MAXIMUM NUMBERS

  Total number of            - Atomic kinds:                                   4
                             - Atoms:                                        274
                             - Shell sets:                                   274
                             - Shells:                                      1218
                             - Primitive Cartesian functions:               1432
                             - Cartesian basis functions:                   3600
                             - Spherical basis functions:                   3210

  Maximum angular momentum of- Orbital basis functions:                        3
                             - Local part of the GTH pseudopotential:          2
                             - Non-local part of the GTH pseudopotential:      4


 SCF PARAMETERS         Density guess:                                    ATOMIC
                        --------------------------------------------------------
                        max_scf:                                              60
                        max_scf_history:                                       0
                        max_diis:                                              4
                        --------------------------------------------------------
                        eps_scf:                                        1.00E-05
                        eps_scf_history:                                0.00E+00
                        eps_diis:                                       1.00E-01
                        eps_eigval:                                     1.00E-05
                        --------------------------------------------------------
                        level_shift [a.u.]:                             0.000000
                        added MOs                                       500  500
                        --------------------------------------------------------
                        Mixing method:                            BROYDEN_MIXING
                                                charge density mixing in g-space
                        --------------------------------------------------------
                        Smear method:                                FERMI_DIRAC
                        Electronic temperature [K]:                        300.0
                        Electronic temperature [a.u.]:                  9.50E-04
                        Accuracy threshold:                             1.00E-10
                        --------------------------------------------------------
                        Outer loop SCF in use 
                        No variables optimised in outer loop
                        eps_scf                                         1.00E-05
                        max_scf                                               50
                        No outer loop optimization
                        step_size                                       5.00E-01

 Spin 1

 Number of electrons:                                                        632
 Number of occupied orbitals:                                                632
 Number of molecular orbitals:                                              1132

 Spin 2

 Number of electrons:                                                        632
 Number of occupied orbitals:                                                632
 Number of molecular orbitals:                                              1132

 Number of orbital functions:                                               3210
 Number of independent orbital functions:                                   3210

 Extrapolation method: initial_guess


 SCF WAVEFUNCTION OPTIMIZATION

  Step     Update method      Time    Convergence         Total energy    Change
  ------------------------------------------------------------------------------
     1 NoMix/Diag. 0.30E+00    4.5     0.36674581     -4242.5093400827 -4.24E+03
     2 Broy./Diag. 0.30E+00    6.9     0.09469360     -4238.5190979237  3.99E+00
     3 Broy./Diag. 0.30E+00    6.9     0.05682772     -4237.2584375836  1.26E+00
     4 Broy./Diag. 0.30E+00    6.8     0.02637927     -4254.9633220848 -1.77E+01
     5 Broy./Diag. 0.30E+00    6.9     0.01219989     -4263.5704569779 -8.61E+00
     6 Broy./Diag. 0.30E+00    7.0     0.00401904     -4261.6226889110  1.95E+00
     7 Broy./Diag. 0.30E+00    6.9     0.00248398     -4258.5291198057  3.09E+00
     8 Broy./Diag. 0.30E+00    7.2     0.00454477     -4258.2221373797  3.07E-01
     9 Broy./Diag. 0.30E+00    7.3     0.00171151     -4259.0731743022 -8.51E-01
    10 Broy./Diag. 0.30E+00    7.1     0.00175404     -4259.3214059217 -2.48E-01
    11 Broy./Diag. 0.30E+00    7.1     0.00071714     -4259.1722223266  1.49E-01
    12 Broy./Diag. 0.30E+00    7.1     0.00067068     -4259.1597873845  1.24E-02
    13 Broy./Diag. 0.30E+00    7.0     0.00051521     -4259.1964536277 -3.67E-02
    14 Broy./Diag. 0.30E+00    7.3     0.00018628     -4259.1725431127  2.39E-02
    15 Broy./Diag. 0.30E+00    7.1     0.00022944     -4259.1671654493  5.38E-03
    16 Broy./Diag. 0.30E+00    7.1     0.00005393     -4259.1690812698 -1.92E-03
    17 Broy./Diag. 0.30E+00    7.2     0.00013363     -4259.1710482127 -1.97E-03
    18 Broy./Diag. 0.30E+00    7.2     0.00003505     -4259.1700586962  9.90E-04
    19 Broy./Diag. 0.30E+00    7.2     0.00004512     -4259.1665367237  3.52E-03
    20 Broy./Diag. 0.30E+00    7.6     0.00001956     -4259.1668280722 -2.91E-04
    21 Broy./Diag. 0.30E+00    7.1     0.00001132     -4259.1677702996 -9.42E-04
    22 Broy./Diag. 0.30E+00    7.4     0.00001350     -4259.1684600033 -6.90E-04
    23 Broy./Diag. 0.30E+00    7.2     0.00000369     -4259.1686234412 -1.63E-04

  *** SCF run converged in    23 steps ***


  Electronic density on regular grids:      -1263.9999999997        0.0000000003
  Core density on regular grids:             1263.9999999989       -0.0000000011
  Total charge density on r-space grids:       -0.0000000008
  Total charge density g-space grids:          -0.0000000008

  Overlap energy of the core charge distribution:               0.00000472817817
  Self energy of the core charge distribution:              -7217.03934990029848
  Core Hamiltonian energy:                                   2292.22179026627146
  Hartree energy:                                            1449.76564401082919
  Exchange-correlation energy:                               -782.86123875364831
  Dispersion energy:                                           -1.25532034823160
  Electronic entropic energy:                                  -0.00015344337530
  Fermi energy:                                                 0.08138275563129

  Total energy:                                             -4259.16862344120273

  outer SCF iter =    1 RMS gradient =   0.37E-05 energy =      -4259.1686234412
  outer SCF loop converged in   1 iterations or   23 steps


  Integrated absolute spin density  :                               0.0000000000
  WARNING: S**2 computation does not yet treat fractional occupied orbitals

 ENERGY| Total FORCE_EVAL ( QS ) energy [a.u.]:            -4259.168374813904848

 -------------------------------------------------------------------------------
 -                                                                             -
 -                                DBCSR STATISTICS                             -
 -                                                                             -
 -------------------------------------------------------------------------------
 COUNTER                                    TOTAL       BLAS       SMM       ACC
 flops     5 x     5 x    76           1757059200       0.0%    100.0%      0.0%
 flops     5 x    13 x    76           1978529280       0.0%    100.0%      0.0%
 flops    13 x     5 x    76           1979477760       0.0%    100.0%      0.0%
 flops    13 x    13 x    76           2265065088       0.0%    100.0%      0.0%
 flops    25 x     5 x    76           4085760000       0.0%    100.0%      0.0%
 flops     5 x    25 x    76           4085760000       0.0%    100.0%      0.0%
 flops    25 x    13 x    76           5190556800       0.0%    100.0%      0.0%
 flops    13 x    25 x    76           5200041600       0.0%    100.0%      0.0%
 flops    25 x    25 x    76           9484800000       0.0%    100.0%      0.0%
 flops     5 x     5 x    96          24413875200       0.0%    100.0%      0.0%
 flops     5 x    13 x    96          27491143680       0.0%    100.0%      0.0%
 flops    13 x     5 x    96          27504322560       0.0%    100.0%      0.0%
 flops    13 x    13 x    96          31472483328       0.0%    100.0%      0.0%
 flops    25 x     5 x    96          56770560000       0.0%    100.0%      0.0%
 flops     5 x    25 x    96          56770560000       0.0%    100.0%      0.0%
 flops    25 x    13 x    96          72121420800       0.0%    100.0%      0.0%
 flops    13 x    25 x    96          72253209600       0.0%    100.0%      0.0%
 flops    25 x    25 x    96         131788800000       0.0%    100.0%      0.0%
 flops inhomo. stacks                           0       0.0%      0.0%      0.0%
 flops total                       536.613425E+09       0.0%    100.0%      0.0%
 flops max/rank                     12.171264E+09       0.0%    100.0%      0.0%
 matmuls inhomo. stacks                         0       0.0%      0.0%      0.0%
 matmuls total                           20297088       0.0%    100.0%      0.0%
 number of processed stacks                248832       0.0%    100.0%      0.0%
 average stack size                                     0.0      81.6       0.0
 marketing flops                   634.608615E+09
 -------------------------------------------------------------------------------
 # multiplications                             48
 max memory usage/rank               1.329562E+09
 # max total images/rank                        3
 # max 3D layers                                1
 # MPI messages exchanged                   46080
 MPI messages size (bytes):
  total size                        19.534877E+09
  min size                         161.120000E+03
  max size                         617.472000E+03
  average size                     423.933969E+03
 MPI breakdown and total messages size (bytes):
             size <=      128                   0                        0
       128 < size <=     8192                   0                        0
      8192 < size <=    32768                   0                        0
     32768 < size <=   131072                   0                        0
    131072 < size <=  4194304               46080              19534878720
   4194304 < size <= 16777216                   0                        0
  16777216 < size                               0                        0
 -------------------------------------------------------------------------------

 *** WARNING in dbcsr_mm.F:291 :: Using a non-square number of MPI ranks ***
 *** might lead to poor performance. Used ranks: 48 Suggested: 49 100    ***

 -------------------------------------------------------------------------------
 -                                                                             -
 -                      DBCSR MESSAGE PASSING PERFORMANCE                      -
 -                                                                             -
 -------------------------------------------------------------------------------
 ROUTINE             CALLS      AVE VOLUME [Bytes]
 MP_Bcast               19                     12.
 MP_Allreduce          393                     10.
 MP_Alltoall          1332                 433310.
 MP_ISend             2304                 189276.
 MP_IRecv             2304                 185702.
 -------------------------------------------------------------------------------

 -------------------------------------------------------------------------------
 -                                                                             -
 -                                DBM STATISTICS                               -
 -                                                                             -
 -------------------------------------------------------------------------------
    M  x    N  x    K                                          COUNT     PERCENT
 -------------------------------------------------------------------------------

 -------------------------------------------------------------------------------
 -                                                                             -
 -                                GRID STATISTICS                              -
 -                                                                             -
 -------------------------------------------------------------------------------
 LP    KERNEL             BACKEND                              COUNT     PERCENT
 4     collocate ortho    CPU                                8476944      13.42%
 2     collocate ortho    CPU                                8411472      13.31%
 4     integrate ortho    CPU                                8368096      13.25%
 2     integrate ortho    CPU                                8060994      12.76%
 6     collocate ortho    CPU                                6302160       9.98%
 6     integrate ortho    CPU                                6144588       9.73%
 3     integrate ortho    CPU                                5970712       9.45%
 3     collocate ortho    CPU                                5864592       9.28%
 5     integrate ortho    CPU                                2768620       4.38%
 5     collocate ortho    CPU                                2520432       3.99%
 7     integrate ortho    CPU                                 262590       0.42%
 0     collocate general  CPU                                  13152       0.02%
 1     integrate general  CPU                                  13152       0.02%
 -------------------------------------------------------------------------------

 MEMORY| Estimated peak process memory [MiB]                                1540

 -------------------------------------------------------------------------------
 -                                                                             -
 -                         MESSAGE PASSING PERFORMANCE                         -
 -                                                                             -
 -------------------------------------------------------------------------------

 ROUTINE             CALLS      AVE VOLUME [Bytes]
 MP_Group                5
 MP_Bcast              208                4101218.
 MP_Allreduce          986                   1073.
 MP_Sync                51
 MP_Alltoall           711                3827977.
 MP_SendRecv          7724                  57007.
 MP_ISendRecv         6768                  20800.
 MP_Wait             20048
 MP_ISend            11828                 116748.
 MP_IRecv            11828                 116748.
 MP_Write_All            1                  80580.
 -------------------------------------------------------------------------------


 -------------------------------------------------------------------------------
 -                                                                             -
 -                           R E F E R E N C E S                               -
 -                                                                             -
 -------------------------------------------------------------------------------
 
 CP2K version 2023.2, the CP2K developers group (2023).
 CP2K is freely available from https://www.cp2k.org/ .

 Kuehne,Thomas D.; Iannuzzi,Marcella; Del Ben,Mauro;
 Rybkin,Vladimir V.; Seewald,Patrick; Stein,Frederick; Laino,Teodoro;
 Khaliullin,Rustam Z.; Schuett,Ole; Schiffmann,Florian; Golze,Dorothea;
 Wilhelm,Jan; Chulkov,Sergey; Bani-Hashemian,Mohammad Hossein;
 Weber,Valery; Borstnik,Urban; Taillefumier,Mathieu;
 Jakobovits,Alice Shoshana; Lazzaro,Alfio; Pabst,Hans; Mueller,Tiziano;
 Schade,Robert; Guidon,Manuel; Andermatt,Samuel; Holmberg,Nico;
 Schenter,Gregory K.; Hehn,Anna; Bussy,Augustin; Belleflamme,Fabian;
 Tabacchi,Gloria; Gloess,Andreas; Lass,Michael; Bethune,Iain;
 Mundy,Christopher J.; Plessl,Christian; Watkins,Matt;
 VandeVondele,Joost; Krack,Matthias; Hutter,Juerg. 
 The Journal of Chemical Physics, 152 (19), (2020). 
 CP2K: An electronic structure and molecular dynamics software package -
 Quickstep: Efficient and accurate electronic structure calculations.
 https://doi.org/10.1063/5.0007045

 Goerigk, Lars; Hansen, Andreas; Bauer, Christoph; Ehrlich, Stephan;
 Najibi, Asim; Grimme, Stefan. , 19 (48), (2017). 
 A look at the density functional theory zoo with the advanced GMTKN55 database
 for general main group thermochemistry, kinetics and noncovalent interactions.
 https://doi.org/10.1039/C7CP04913G

 Schuett, Ole; Messmer, Peter; Hutter, Juerg; VandeVondele, Joost. 
 Electronic Structure Calculations on Graphics Processing Units, John
 Wiley & Sons, Ltd, 173-190 (2016). 
 GPU-Accelerated Sparse Matrix-Matrix Multiplication for
 Linear Scaling Density Functional Theory.
 https://doi.org/10.1002/9781118670712.ch8

 Heinecke, A; Henry, G; Hutchinson, M; Pabst, H. 
 Proceedings of Intl. Supercomputing Conference, 981-991 (2016). 
 LIBXSMM: Accelerating Small Matrix Multiplications
 by Runtime Code Generation.
 https://doi.org/10.1109/SC.2016.83

 Borstnik, U; VandeVondele, J; Weber, V; Hutter, J. 
 PARALLEL COMPUTING, 40 (5-6), 47-58 (2014). 
 Sparse matrix multiplication: The distributed block-compressed sparse
 row library.
 https://doi.org/10.1016/j.parco.2014.03.012

 Hutter, J; Iannuzzi, M; Schiffmann, F; VandeVondele, J. 
 WIREs Comput Mol Sci., 4 (1), 15-25 (2014). 
 CP2K: atomistic simulations of condensed matter systems.
 https://doi.org/10.1002/wcms.1159

 Marek, A; Blum, V; Johanni, R; Havu, V; Lang, B; Auckenthaler, T;
 Heinecke, A; Bungartz, H; Lederer, H. 
 Journal of Physics: Condensed Matter, 26 (21), (2014). 
 The ELPA library: scalable parallel eigenvalue solutions for
 electronic structure
 theory and computational science.
 https://doi.org/10.1088/0953-8984/26/21/213201

 Grimme, S; Ehrlich, S; Goerigk, L. 
 JOURNAL OF COMPUTATIONAL CHEMISTRY, 32, 1456 (2011). 
 Effect of the damping function in dispersion corrected density functional theory.
 https://doi.org/10.1002/jcc.21759

 Grimme, S; Antony, J; Ehrlich, S; Krieg, H. 
 JOURNAL OF CHEMICAL PHYSICS, 132 (15), 154104 (2010). 
 A consistent and accurate ab initio parametrization of density
 functional dispersion correction (DFT-D) for the 94 elements H-Pu.
 https://doi.org/10.1063/1.3382344

 VandeVondele, J; Hutter, J. 
 JOURNAL OF CHEMICAL PHYSICS, 127 (11), 114105 (2007). 
 Gaussian basis sets for accurate calculations on molecular systems in
 gas and condensed phases.
 https://doi.org/10.1063/1.2770708

 Krack, M. 
 THEORETICAL CHEMISTRY ACCOUNTS, 114 (1-3), 145-152 (2005). 
 Pseudopotentials for H to Kr optimized for gradient-corrected
 exchange-correlation functionals.
 https://doi.org/10.1007/s00214-005-0655-y

 VandeVondele, J; Krack, M; Mohamed, F; Parrinello, M; Chassaing, T;
 Hutter, J. COMPUTER PHYSICS COMMUNICATIONS, 167 (2), 103-128 (2005). 
 QUICKSTEP: Fast and accurate density functional calculations using a
 mixed Gaussian and plane waves approach.
 https://doi.org/10.1016/j.cpc.2004.12.014

 Frigo, M; Johnson, SG. 
 PROCEEDINGS OF THE IEEE, 93 (2), 216-231 (2005). 
 The design and implementation of FFTW3.
 https://doi.org/10.1109/JPROC.2004.840301

 Hartwigsen, C; Goedecker, S; Hutter, J. 
 PHYSICAL REVIEW B, 58 (7), 3641-3662 (1998). 
 Relativistic separable dual-space Gaussian pseudopotentials from H to Rn.
 https://doi.org/10.1103/PhysRevB.58.3641

 Lippert, G; Hutter, J; Parrinello, M. 
 MOLECULAR PHYSICS, 92 (3), 477-487 (1997). 
 A hybrid Gaussian and plane wave density functional scheme.
 https://doi.org/10.1080/002689797170220

 Perdew, JP; Burke, K; Ernzerhof, M. 
 PHYSICAL REVIEW LETTERS, 77 (18), 3865-3868 (1996). 
 Generalized gradient approximation made simple.
 https://doi.org/10.1103/PhysRevLett.77.3865

 Goedecker, S; Teter, M; Hutter, J. 
 PHYSICAL REVIEW B, 54 (3), 1703-1710 (1996). 
 Separable dual-space Gaussian pseudopotentials.
 https://doi.org/10.1103/PhysRevB.54.1703


 -------------------------------------------------------------------------------
 -                                                                             -
 -                                T I M I N G                                  -
 -                                                                             -
 -------------------------------------------------------------------------------
 SUBROUTINE                       CALLS  ASD         SELF TIME        TOTAL TIME
                                MAXIMUM       AVERAGE  MAXIMUM  AVERAGE  MAXIMUM
 CP2K                                 1  1.0    0.016    0.022  180.932  180.933
 qs_forces                            1  2.0    0.002    0.002  180.596  180.596
 qs_energies                          1  3.0    0.001    0.003  168.972  168.973
 scf_env_do_scf                       1  4.0    0.000    0.000  163.744  163.894
 scf_env_do_scf_inner_loop           23  5.0    0.002    0.003  163.744  163.894
 rebuild_ks_matrix                   24  6.9    0.000    0.001   78.394   78.404
 qs_ks_build_kohn_sham_matrix        24  7.9    0.017    0.050   78.393   78.404
 qs_ks_update_qs_env                 23  6.0    0.000    0.000   72.748   72.758
 sum_up_and_integrate                24  8.9    0.050    0.065   71.477   71.486
 integrate_v_rspace                  48  9.9    0.003    0.008   71.426   71.444
 grid_integrate_task_list            48 10.9   43.960   66.570   43.960   66.570
 qs_rho_update_rho_low               24  6.0    0.002    0.008   59.524   59.533
 calculate_rho_elec                  48  7.0    0.039    0.044   59.522   59.533
 grid_collocate_task_list            48  8.0   36.480   56.229   36.480   56.229
 rs_pw_transfer                     482 10.4    0.005    0.007   24.473   30.305
 mp_alltoall_d11v                   668 10.2   23.490   30.171   23.490   30.171
 rs_gather_matrices                  48 10.9    0.058    0.065   23.022   29.685
 qs_scf_new_mos                      23  6.0    0.004    0.008   29.275   29.305
 density_rs2pw                       48  8.0    0.003    0.004   22.564   28.345
 eigensolver                         46  7.0    0.004    0.007   27.009   27.030
 mp_waitany                       11828 12.4   21.037   27.017   21.037   27.017
 rs_pw_transfer_RS2PW_230            49 10.0    0.403    0.483   20.694   26.547
 cp_fm_diag_elpa                     46  8.0    0.000    0.001   13.597   13.655
 cp_fm_diag_elpa_base                46  9.0   13.300   13.341   13.559   13.560
 cp_fm_triangular_multiply          138  8.0   13.123   13.252   13.123   13.252
 qs_vxc_create                       24  8.9    0.003    0.008    6.283    6.332
 xc_vxc_pw_create                    24  9.9    0.207    0.265    6.280    6.330
 build_core_hamiltonian_matrix_       1  3.0    0.000    0.000    5.075    5.938
 qs_ks_update_qs_env_forces           1  3.0    0.000    0.000    5.681    5.681
 pw_nn_compose_r                    384 12.8    3.214    3.626    4.093    4.841
 build_core_ppnl_forces               1  4.0    3.923    4.707    3.925    4.708
 gspace_mixing                       22  6.0    0.035    0.038    4.551    4.552
 potential_pw2rs                     48 10.9    0.007    0.015    4.431    4.454
 pw_transfer                        645 10.0    0.038    0.044    3.807    3.899
 xc_rho_set_and_dset_create          24 10.9    0.113    0.151    3.474    3.861
 fft_wrap_pw1pw2                    597 11.0    0.004    0.007    3.733    3.820
 xc_pw_derive                       288 11.9    0.001    0.001    2.980    3.765
 broyden_mixing                      22  7.0    3.022    3.530    3.663    3.685
 -------------------------------------------------------------------------------

 The number of warnings for this run is : 1
 
 -------------------------------------------------------------------------------
  **** **** ******  **  PROGRAM ENDED AT                 2026-04-03 18:28:07.408
 ***** ** ***  *** **   PROGRAM RAN ON                                    node40
 **    ****   ******    PROGRAM RAN BY                                    shaofl
 ***** **    ** ** **   PROGRAM PROCESS ID                                216231
  **** **  *******  **  PROGRAM STOPPED IN /share/home/chem-wangyg/shaofl/projec
                                           ts/03_CuAg_SAA/small/explicit/potenti
                                           al/potential/pzc/potential_t6500_i650
                                           0
