274
traj_10000
Cu    9.494834    10.100498    26.193185
Cu    1.872098    2.628667    26.334279
Cu    9.366830    10.148857    3.321510
Cu    1.822410    2.651671    3.313847
Cu    1.772926    0.029547    26.342998
Cu    9.486961    2.563029    26.335864
Cu    1.643185    0.082814    3.360086
Cu    9.469069    2.572027    3.431689
Cu    3.237091    1.072283    24.394904
Cu    0.505470    3.907472    24.353686
Cu    3.073304    1.222267    1.679647
Cu    0.457008    3.863714    1.538025
Cu    0.606380    1.311726    24.603374
Ag    3.077598    3.860340    24.365047
Cu    0.458337    1.457724    1.603551
Cu    3.161843    3.908699    1.510282
Cu    4.392187    0.002658    26.157780
Cu    6.910845    2.426438    26.418829
Cu    4.095490    0.069829    3.566177
Cu    6.964112    2.490747    3.605546
Cu    6.927817    10.167566    26.262940
Cu    4.376443    2.543297    26.363872
Cu    6.887432    10.125342    3.514126
Cu    4.235762    2.740210    3.294031
Cu    8.194763    1.393620    24.663616
Cu    5.714547    3.932828    24.432159
Cu    8.106530    1.142316    1.598267
Cu    5.717921    3.979858    1.802773
Cu    5.766689    1.469277    24.546566
Cu    8.320414    3.914425    24.403623
Cu    5.650750    1.297311    1.911103
Cu    8.082709    3.788057    1.612006
Cu    9.501070    5.312645    26.141398
Cu    1.744095    7.775174    26.268752
Cu    9.448213    5.029954    3.291389
Cu    1.777629    7.598096    3.345025
Cu    1.732644    5.160820    26.275622
Cu    9.310088    7.702584    26.043373
Cu    1.731724    5.061035    3.325737
Cu    9.600549    7.433695    3.399719
Cu    3.036294    6.398423    24.540489
Cu    0.484306    9.030975    24.399924
Cu    3.173805    6.439319    1.561540
Cu    0.485635    9.040177    1.612006
Cu    0.548819    6.414577    24.301370
Cu    3.054799    8.827826    24.513011
Cu    0.501278    6.436763    1.519529
Cu    2.971679    9.023410    1.771067
Cu    4.414476    5.121254    26.224363
Cu    6.704936    7.606479    26.105200
Ag    4.212042    5.266126    3.801597
Cu    6.932724    7.659644    3.485326
Cu    6.893976    5.093240    26.305479
Cu    4.265002    7.794804    26.321596
Cu    6.940495    5.093036    3.577803
Cu    4.292811    7.791225    3.514126
Cu    8.095080    6.349042    24.454618
Cu    5.513647    9.158263    24.336512
Cu    8.160001    6.377771    1.626538
Cu    5.485531    8.905017    1.621518
Cu    5.527347    6.445351    24.366633
Cu    8.140883    8.891215    24.370860
Cu    5.631120    6.457109    1.770538
Cu    8.162148    8.824248    1.657981
 O    6.308351    6.385132    6.394124
 H    5.756465    6.580409    5.587460
 H    5.918105    6.835188    7.159569
 O    9.353948    6.422450    6.295570
 H    8.515282    6.128410    5.923284
 H    9.937426    6.238419    5.510044
 O    1.418873    0.458133    16.524319
 H    1.141601    10.041915    17.218689
 H    2.093957    0.015131    15.977912
 O    4.127695    10.218584    5.519820
 H    3.450362    9.598402    5.849038
 H    3.711276    0.909825    5.863042
 O    0.522646    0.554749    6.093970
 H    10.219708    0.871076    5.336980
 H    0.601574    1.341785    6.704847
 O    5.837745    1.837848    12.375008
 H    5.932622    2.042837    13.307969
 H    6.813002    1.844289    12.055302
 O    0.505470    4.834473    17.355026
 H    0.434107    4.290971    16.530660
 H    10.149777    5.667108    17.364010
 O    7.442079    1.142930    21.039574
 H    7.748183    0.863511    20.112426
 H    6.737755    1.877108    21.012096
 O    5.518963    2.764543    21.447530
 H    5.647171    3.129740    22.313379
 H    5.325016    3.521213    20.835068
 O    2.033329    7.481339    13.547088
 H    2.580001    6.807993    13.971689
 H    2.378284    7.609035    12.627074
 O    6.373170    4.348736    18.172787
 H    6.523973    4.445556    17.179056
 H    7.262343    4.272568    18.617470
 O    10.117265    0.812902    22.019302
 H    9.212961    1.081484    21.941621
 H    0.463347    1.480932    21.603684
 O    4.763928    5.153561    20.357094
 H    3.929965    5.565687    19.920074
 H    5.473263    5.095081    19.645814
 O    7.531538    3.046313    9.361579
 H    7.556689    4.030159    9.692646
 H    7.804823    2.949595    8.418049
 O    7.163784    4.444636    15.308907
 H    6.736221    3.580819    15.149054
 H    8.145790    4.188221    15.458720
 O    8.556177    2.198139    11.755148
 H    8.390755    2.531744    10.757453
 H    9.397604    1.754115    11.568873
 O    3.808607    7.725383    17.001500
 H    3.465493    8.510886    16.384811
 H    4.444432    8.233920    17.545001
 O    4.560882    5.281462    9.248493
 H    4.665779    6.196297    8.918218
 H    4.948674    4.662201    8.567334
 O    8.002860    2.591861    6.804722
 H    7.952763    1.712708    6.392274
 H    8.952354    2.928432    6.580928
 O    3.586237    0.212350    12.754956
 H    4.296492    0.772722    12.352813
 H    3.849298    9.523870    12.468542
 O    2.745833    7.848888    10.811618
 H    3.541661    7.873323    10.282914
 H    2.134750    8.464469    10.227428
 O    3.542990    9.031691    21.419523
 H    3.580716    9.918921    21.938187
 H    2.585931    8.906244    21.234305
 O    8.847865    6.862895    20.978804
 H    8.126365    6.901541    20.279942
 H    8.469888    7.421631    21.649130
 O    2.153665    4.098762    12.650325
 H    3.090787    4.125957    12.331676
 H    2.354462    4.037111    13.597290
 O    9.311315    4.652488    12.619411
 H    8.946117    3.904610    12.150421
 H    9.949593    5.140781    12.076704
 O    3.181473    3.472343    15.340877
 H    3.439218    4.463346    15.365978
 H    2.825784    3.239340    16.219145
 O    1.532051    5.605049    21.684007
 H    2.317349    5.543296    22.248645
 H    1.716797    6.311929    21.053050
 O    8.745013    3.690419    19.066115
 H    9.441158    4.081585    18.483774
 H    9.128614    3.757897    19.985072
 O    5.976279    8.707696    12.676483
 H    6.702891    9.123911    13.207829
 H    6.133829    7.753908    12.856681
 O    2.569880    2.517635    17.782534
 H    2.162559    1.718024    17.338909
 H    3.490644    2.241897    17.939745
 O    2.198343    4.299866    8.702878
 H    3.110417    4.679888    8.955737
 H    1.598609    4.723237    9.308471
 O    8.171452    9.504853    14.160078
 H    8.871074    10.221344    13.995998
 H    8.589712    8.665471    13.946588
 O    8.841015    8.180858    9.443487
 H    8.867802    8.316325    8.400875
 H    8.005518    8.620792    9.628969
 O    9.624166    7.168079    14.084776
 H    0.315612    7.302216    13.750273
 H    9.243632    6.360697    13.717246
 O    4.794907    7.746547    8.646600
 H    4.165319    8.168078    8.029117
 H    5.535219    8.254163    9.135142
 O    2.249462    1.477149    8.690988
 H    2.135159    2.490951    8.796148
 H    2.616092    1.541048    7.809815
 O    5.213985    6.946424    22.308623
 H    4.406296    7.504752    22.212447
 H    5.198751    6.326038    21.527060
 O    6.839482    10.160410    16.624722
 H    7.684692    0.249054    17.098205
 H    7.209281    9.915343    15.759138
 O    5.057763    1.709334    18.216384
 H    5.561802    2.505571    18.057852
 H    5.499231    1.142828    17.516729
 O    1.246089    9.252834    9.346518
 H    0.304468    9.073405    9.604133
 H    1.521419    10.196295    9.454320
 O    1.690215    2.536959    20.639281
 H    1.469788    3.522951    20.611538
 H    1.853184    2.451589    19.636830
 O    7.546158    5.736937    10.143934
 H    7.367956    5.863509    11.127097
 H    7.969223    6.644717    9.839289
 O    0.709436    5.988752    10.217652
 H    0.138636    6.732643    9.937050
 H    1.601063    6.357937    10.489270
 O    1.254575    1.729577    12.141702
 H    2.001124    1.116143    12.249768
 H    1.609855    2.687557    12.160197
 O    5.691441    2.116143    15.132144
 H    6.065431    1.325938    15.658470
 H    4.763213    2.403128    15.432298
 O    9.815148    3.557406    15.162793
 H    9.825577    3.965544    14.282676
 H    9.764438    2.586544    14.902536
 O    5.079131    9.029953    19.307348
 H    5.474183    9.863405    19.181315
 H    4.481238    9.129840    20.117182
 O    7.211837    8.949082    22.236755
 H    6.557303    8.244042    22.002128
 H    7.283711    9.728041    21.635919
 O    3.212349    2.198241    6.340223
 H    2.578672    2.828544    5.799629
 H    3.970758    2.800122    6.523328
 O    10.052343    1.034965    14.203410
 H    0.460484    1.237399    13.432681
 H    0.330130    0.680298    14.966478
 O    5.187198    1.109600    9.363693
 H    5.867292    1.817503    9.445601
 H    4.302319    1.514773    9.436617
 O    5.213985    3.844698    7.033801
 H    6.023717    3.322563    7.162476
 H    5.553111    4.606992    6.441419
 O    6.913401    7.275532    18.620112
 H    6.500458    6.396890    18.518651
 H    6.236988    7.907062    18.897807
 O    8.451689    1.014824    18.562512
 H    9.207849    0.374910    18.737690
 H    8.734993    1.925160    18.772303
 O    6.410079    9.051832    10.008125
 H    5.993966    9.872914    9.709557
 H    6.216949    8.896633    10.971471
 O    2.226152    5.956035    6.686087
 H    2.286882    5.715262    5.738594
 H    2.290051    5.229423    7.371474
 O    2.660054    6.370103    19.049998
 H    2.963500    7.013186    18.331319
 H    2.105510    5.745116    18.570438
 O    6.526120    5.886308    13.067000
 H    6.993148    5.373580    13.781715
 H    5.818524    5.392085    12.583213
 O    6.843981    10.173803    5.696319
 H    5.902564    9.849501    5.727233
 H    7.455677    9.466616    6.093706
 O    2.996727    9.354869    15.053406
 H    2.480114    8.622633    14.540291
 H    3.308659    9.988853    14.298001
 O    9.276962    7.333501    17.313808
 H    8.311622    7.336159    17.536281
 H    9.359265    7.407931    16.332759
 O    0.766486    8.723849    20.994657
 H    0.453737    9.609239    21.478972
 H    0.072896    8.006336    20.906408
 O    3.967793    6.010835    14.937413
 H    4.846231    5.855943    14.538706
 H    4.202841    6.577239    15.696253
 O    2.657805    8.419688    7.098535
 H    1.967078    8.880071    7.531855
 H    2.456803    7.391164    7.043048
 O    4.505468    4.134545    11.835999
 H    5.000407    3.269808    11.906017
 H    4.637050    4.574991    10.906209
 O    8.850217    8.796235    6.875533
 H    9.038950    7.892135    6.492678
 H    9.567219    9.380224    6.497698
 O    0.293630    3.727327    6.302968
 H    0.227993    4.522542    6.820839
 H    0.229629    4.066761    5.358382
 O    0.243840    9.378383    18.484567
 H    0.495246    9.213676    19.430210
 H    9.935484    8.584600    18.121793
 O    9.638275    3.946119    21.648601
 H    10.105712    4.818524    21.768029
 H    9.242917    3.829771    22.543515
 O    3.519271    1.376853    22.187346
 H    4.435435    1.608219    21.826686
 H    2.762089    1.911460    21.788638
